          36
  Built with Packmol                                             
  C           -0.492338       -0.001656        0.003365
  C            0.962967        0.003877       -0.006689
  N            2.119039        0.008329       -0.014535
  H           -0.865699       -0.699319       -0.758510
  H           -0.855196       -0.318287        0.990631
  H           -0.868774        1.007056       -0.214261
  C            4.704178        1.812562        4.914615
  C            4.581504        1.417078        3.519413
  N            4.484086        1.103054        2.411044
  H            4.877444        0.924730        5.537767
  H            5.549027        2.504887        5.030944
  H            3.781011        2.309740        5.241939
  C            2.886103       -3.225272       -0.128087
  C            4.240737       -2.701004       -0.218380
  N            5.316811       -2.284444       -0.289987
  H            2.826658       -4.190539       -0.648963
  H            2.612946       -3.367398        0.926333
  H            2.183501       -2.519895       -0.592152
  C           -2.269071       -0.787895        3.506545
  C           -1.227059       -1.538350        2.821656
  N           -0.399195       -2.134419        2.277664
  H           -3.210551       -1.353198        3.481365
  H           -1.978089       -0.618938        4.552202
  H           -2.415548        0.181121        3.010444
  C           -1.801683        4.069748        0.161246
  C           -0.850333        3.428199       -0.733959
  N           -0.094696        2.918451       -1.445122
  H           -1.540764        5.129965        0.281440
  H           -2.814437        3.993107       -0.257169
  H           -1.777403        3.577655        1.142989
  C            4.723617       -2.763466        4.590856
  C            3.540471       -3.040811        3.790051
  N            2.600630       -3.261011        3.153815
  H            5.014189       -3.664765        5.147465
  H            5.552271       -2.461581        3.936017
  H            4.509575       -1.953106        5.300833
