          70
  Built with Packmol                                             
  O            1.470308       -0.015156        0.055785
  Cl           0.000284       -0.000149       -0.000155
  O           -0.464498        1.355604       -0.333070
  O           -0.461505       -0.943601       -1.030393
  O           -0.544589       -0.396697        1.307832
  C           -0.879901        4.396143       -4.225747
  C           -2.270963        4.491228       -3.657865
  C           -3.182884        5.520368       -4.325925
  O           -3.880025        6.104849       -3.219497
  C           -3.231619        5.829801       -2.084434
  O           -3.518071        6.293619       -1.014152
  O           -2.230888        4.976454       -2.295213
  H           -0.277126        3.672405       -3.660037
  H           -0.936527        4.053358       -5.269203
  H           -0.382723        5.376956       -4.203758
  H           -2.753840        3.502858       -3.624622
  H           -3.911987        5.074239       -5.011220
  H           -2.617572        6.311495       -4.840539
  C            4.326281        1.636666        5.634364
  C            5.264912        0.570249        6.132674
  C            6.752409        0.860016        5.931631
  O            7.281162       -0.410704        5.534772
  C            6.285049       -1.207196        5.137520
  O            6.443455       -2.287057        4.636029
  O            5.098567       -0.648735        5.370914
  H            3.280290        1.329627        5.771448
  H            4.489904        2.560880        6.207569
  H            4.505465        1.846229        4.569638
  H            5.053710        0.315332        7.182228
  H            7.258541        1.186731        6.846693
  H            6.934146        1.582721        5.122337
  C            3.402923       -3.178759        3.402781
  C            2.040995       -3.801943        3.249869
  C            2.027748       -5.325171        3.120898
  O            1.033030       -5.558514        2.116958
  C            0.799243       -4.427772        1.445233
  O            0.104140       -4.354476        0.468429
  O            1.434944       -3.397039        1.999819
  H            3.327881       -2.083212        3.438960
  H            3.855617       -3.522361        4.344330
  H            4.059576       -3.469307        2.569683
  H            1.361473       -3.470477        4.049575
  H            1.730279       -5.836304        4.043127
  H            2.987719       -5.724884        2.761770
  C            1.573961       -5.960876       -4.252006
  C            2.827142       -5.197672       -3.914891
  C            2.849481       -3.739107       -4.372187
  O            4.190747       -3.566181       -4.844319
  C            4.749298       -4.760822       -5.057169
  O            5.823476       -4.921886       -5.569892
  O            3.961822       -5.745055       -4.626751
  H            1.659074       -7.009060       -3.933842
  H            0.721389       -5.510506       -3.723047
  H            1.375938       -5.925729       -5.333309
  H            3.062354       -5.275798       -2.842640
  H            2.662468       -3.026950       -3.560948
  H            2.157800       -3.549599       -5.206425
  C            4.204419       -5.881900        0.193953
  C            5.207218       -5.515150       -0.867402
  C            6.673449       -5.613996       -0.446179
  O            7.263641       -4.454857       -1.046077
  C            6.305758       -3.587337       -1.384189
  O            6.514192       -2.477474       -1.793390
  O            5.094743       -4.113634       -1.209418
  H            3.178895       -5.736997       -0.172742
  H            4.327068       -6.942395        0.458180
  H            4.354838       -5.274014        1.098117
  H            5.027039       -6.079602       -1.794808
  H            7.175861       -6.508856       -0.829663
  H            6.802799       -5.547779        0.644312
