          35
  Built with Packmol                                             
  O            1.439964       -0.014723        0.054531
  Cl          -0.000030        0.000015        0.000039
  O           -0.454634        1.327942       -0.326560
  O           -0.451949       -0.924233       -1.009074
  O           -0.533352       -0.389001        1.281065
  C           -3.776275        3.130139        2.446654
  C           -4.273564        4.483066        2.280966
  N           -4.666905        5.553444        2.149917
  H           -4.403796        2.439050        1.884405
  H           -2.752427        3.069791        2.078440
  H           -3.796983        2.860108        3.502201
  C           -4.537220       -4.986882       -4.807862
  C           -5.102818       -3.733433       -4.345127
  N           -5.550328       -2.741834       -3.978976
  H           -3.683845       -4.785575       -5.454962
  H           -4.210655       -5.577931       -3.952582
  H           -5.290122       -5.543607       -5.365285
  C           -4.210663       -2.202321       -0.835609
  C           -3.378760       -3.207640       -0.201235
  N           -2.720586       -4.002918        0.300703
  H           -4.928261       -2.686736       -1.497355
  H           -4.746411       -1.637504       -0.073084
  H           -3.585455       -1.523591       -1.415233
  C           -5.050146       -3.832567        1.970216
  C           -3.674876       -3.405404        2.147202
  N           -2.586883       -3.067396        2.287282
  H           -5.069958       -4.807230        1.483235
  H           -5.538182       -3.904156        2.941908
  H           -5.580720       -3.108795        1.352018
  C           -4.615075       -0.337143        4.111560
  C           -3.678556        0.468483        4.872519
  N           -2.937712        1.105860        5.474600
  H           -4.068047       -0.977142        3.419699
  H           -5.200098       -0.956468        4.791025
  H           -5.284274        0.313871        3.549530
