          72
  Built with Packmol                                             
  O           -2.187057        1.398250        0.401489
  C           -1.144325        0.830801        0.181715
  C           -0.888034       -0.644167        0.003073
  C            0.620120       -0.756416        0.190085
  C            1.095544        0.619103       -0.265802
  O            0.005635        1.509701        0.044984
  H           -1.500754       -1.228722        0.700586
  H           -1.202133       -0.903007       -1.021970
  H            0.862962       -0.910071        1.251896
  H            1.080940       -1.565597       -0.390197
  H            1.987287        0.986944        0.256020
  H            1.269815        0.663182       -1.351881
  O           -1.273757       -6.789793        3.124510
  C           -1.222167       -5.977738        4.016415
  C           -2.245048       -5.674784        5.081808
  C           -1.803607       -4.313500        5.605388
  C           -0.301451       -4.349558        5.344351
  O           -0.146887       -5.192022        4.185033
  H           -3.259287       -5.720773        4.666043
  H           -2.156533       -6.464931        5.846140
  H           -2.272138       -3.508757        5.019819
  H           -2.034474       -4.148757        6.665302
  H            0.142026       -3.374127        5.110528
  H            0.256842       -4.809538        6.174175
  O           -2.160403        5.379792        6.548044
  C           -1.049668        5.233559        6.098074
  C           -0.281108        3.956871        5.868920
  C            1.154025        4.443377        5.708271
  C            0.948053        5.848909        5.153322
  O           -0.312199        6.282964        5.701970
  H           -0.456740        3.249253        6.688728
  H           -0.675455        3.506305        4.942718
  H            1.653238        4.490471        6.687348
  H            1.762198        3.820868        5.040090
  H            1.712822        6.573600        5.457891
  H            0.860576        5.857181        4.055980
  O           -4.953438        1.552110        3.151288
  C           -4.754135        2.711735        3.421727
  C           -3.732507        3.303553        4.359359
  C           -4.257605        4.714695        4.593990
  C           -5.012535        4.987661        3.297270
  O           -5.473636        3.694679        2.857682
  H           -3.624312        2.679014        5.254848
  H           -2.767136        3.300502        3.826049
  H           -4.951214        4.727131        5.447674
  H           -3.470700        5.456960        4.777507
  H           -5.890510        5.634992        3.410997
  H           -4.360424        5.399717        2.511877
  O            2.117361       -1.265568        4.150097
  C            2.895718       -0.464628        4.608621
  C            2.865712        0.224783        5.949121
  C            3.827902        1.390854        5.757888
  C            4.779060        0.841829        4.699690
  O            3.980645       -0.072388        3.922261
  H            1.837359        0.493580        6.220954
  H            3.233193       -0.502239        6.692604
  H            3.291548        2.268719        5.368397
  H            4.355396        1.686568        6.673398
  H            5.182523        1.598386        4.015841
  H            5.612486        0.273346        5.140267
  O            1.469637        1.546161        4.321687
  C            0.480455        0.870799        4.170053
  C           -0.702695        1.113229        3.267551
  C           -1.765342        0.180198        3.835298
  C           -0.914758       -0.929171        4.444987
  O            0.312693       -0.282584        4.836066
  H           -0.962306        2.179053        3.250915
  H           -0.394299        0.824154        2.248877
  H           -2.342792        0.691342        4.619714
  H           -2.467217       -0.203361        3.084226
  H           -1.347818       -1.393588        5.339183
  H           -0.666041       -1.715106        3.715379
