          78
  Built with Packmol                                             
  C           -1.550009       -0.625527       -0.023695
  C           -0.203825       -0.270205        0.549124
  C            0.269794        1.157009        0.273847
  O            1.663590        0.988650       -0.010398
  C            1.912194       -0.292653       -0.294843
  O            2.969262       -0.703289       -0.690660
  O            0.838361       -1.051245       -0.081507
  H           -1.792393       -1.678410        0.175929
  H           -2.321899       -0.000782        0.448945
  H           -1.569956       -0.448975       -1.109096
  H           -0.158433       -0.497486        1.624965
  H            0.159749        1.824657        1.135466
  H           -0.216435        1.598254       -0.608860
  C           -6.350733        0.725410       -4.841206
  C           -4.922010        0.977474       -5.243451
  C           -4.053711       -0.271480       -5.395776
  O           -2.804540        0.127904       -4.819694
  C           -2.984312        1.218676       -4.069795
  O           -2.137398        1.703187       -3.369315
  O           -4.220650        1.696333       -4.201719
  H           -6.890043        1.673048       -4.705972
  H           -6.855532        0.154106       -5.633859
  H           -6.395673        0.146805       -3.906936
  H           -4.869262        1.603940       -6.146728
  H           -3.888713       -0.560780       -6.439487
  H           -4.444424       -1.127093       -4.825201
  C            4.419291        1.926255        4.351054
  C            3.919368        1.494110        2.998311
  C            3.622963        0.001236        2.855123
  O            4.119715       -0.305579        1.547105
  C            4.945821        0.662880        1.142032
  O            5.603794        0.612734        0.138417
  O            4.942653        1.687077        1.993561
  H            4.654138        2.999566        4.354622
  H            3.636892        1.744319        5.102228
  H            5.317689        1.358181        4.633605
  H            3.054055        2.097289        2.684370
  H            2.553875       -0.234810        2.894913
  H            4.170655       -0.608259        3.589177
  C            3.800887        3.292290       -5.802196
  C            4.281866        2.556685       -4.579849
  C            5.680718        1.949627       -4.688131
  O            5.535416        0.679173       -4.042653
  C            4.239718        0.366879       -3.952716
  O            3.826138       -0.693407       -3.568751
  O            3.470664        1.382223       -4.342236
  H            2.772924        3.653163       -5.659985
  H            4.448264        4.163449       -5.979665
  H            3.836594        2.640797       -6.687603
  H            4.195724        3.184474       -3.680066
  H            6.447657        2.530277       -4.163821
  H            5.985245        1.779143       -5.731437
  C            4.111632        6.153237        2.738818
  C            5.060353        5.639348        1.688850
  C            6.535098        5.619520        2.091049
  O            7.202741        6.061167        0.903190
  C            6.325510        6.655471        0.089728
  O            6.624975        7.230387       -0.921448
  O            5.080660        6.525938        0.545426
  H            3.082930        6.180992        2.353896
  H            4.133879        5.480506        3.608557
  H            4.402939        7.161979        3.066300
  H            4.742633        4.653914        1.315854
  H            6.899765        4.620600        2.354542
  H            6.759036        6.328140        2.902219
  C            1.614082        6.422407       -0.173446
  C            0.562596        6.289824        0.895847
  C           -0.260460        5.002384        0.849920
  O           -1.587131        5.453014        1.147717
  C           -1.661984        6.775239        0.972885
  O           -2.681937        7.406949        1.030546
  O           -0.461632        7.298183        0.728395
  H            2.124045        7.392802       -0.099735
  H            2.365472        5.629869       -0.043812
  H            1.166851        6.323531       -1.173382
  H            0.993561        6.443899        1.896687
  H            0.043201        4.266002        1.602104
  H           -0.263646        4.541033       -0.148795
