          45
  Built with Packmol                                             
  O           -1.210325       -0.240505       -2.446409
  S           -1.033360       -0.369603       -1.032070
  O           -1.059297       -1.678878       -0.454507
  N            0.143369        0.569882       -0.581007
  S            1.047446        0.436708        0.697999
  O            0.542056       -0.390584        1.750884
  O            1.570000        1.727005        1.030455
  C            2.516529       -0.480391        0.048639
  F            3.085326        0.183003       -0.954691
  F            2.171736       -1.688846       -0.386604
  F            3.414156       -0.622515        1.022725
  C           -2.513617        0.482557       -0.321804
  F           -2.609095        1.728646       -0.778045
  F           -2.449727        0.523526        1.006010
  F           -3.615198       -0.180003       -0.671425
  C           -3.742406        3.299825        3.954701
  C           -2.885168        4.467361        4.039329
  N           -2.207020        5.391073        4.106205
  H           -3.692895        2.741959        4.889498
  H           -4.770372        3.613826        3.775319
  H           -3.411315        2.662236        3.135322
  C           -0.249139        3.316307       -3.113007
  C            0.360695        4.424126       -3.824343
  N            0.843098        5.300617       -4.387062
  H            0.388773        2.436326       -3.191820
  H           -0.372548        3.580257       -2.062964
  H           -1.224130        3.095984       -3.547028
  C           -2.188689       -4.011786        4.367579
  C           -0.858611       -3.432177        4.377826
  N            0.193622       -2.973545        4.385911
  H           -2.167423       -4.983327        4.860699
  H           -2.877944       -3.353472        4.895819
  H           -2.525027       -4.136052        3.338522
  C            4.478344        1.370733       -3.577889
  C            3.535170        2.446661       -3.818640
  N            2.789010        3.297857       -4.009198
  H            4.343582        0.986377       -2.567137
  H            4.307883        0.568381       -4.295288
  H            5.495673        1.745012       -3.689606
  C            2.556721        5.041642       -1.088195
  C            3.949216        5.331776       -1.374444
  N            5.050860        5.561259       -1.600983
  H            2.188072        5.732602       -0.330447
  H            1.966117        5.153471       -1.997134
  H            2.464551        4.019773       -0.721027
