15
tier2-directive-jojo-v4; ORCA geometry archive
O       -1.2103246683      -0.2405054889      -2.4464087093
S       -1.0333598668      -0.3696033209      -1.0320702702
O       -1.0592965059      -1.6788784393      -0.4545074268
N        0.1433691925       0.5698824295      -0.5810067003
S        1.0474457536       0.4367076086       0.6979985058
O        0.5420561113      -0.3905840344       1.7508842654
O        1.5700001339       1.7270050219       1.0304553767
C        2.5165287686      -0.4803909380       0.0486394685
F        3.0853256635       0.1830031510      -0.9546913368
F        2.1717356995      -1.6888455983      -0.3866039064
F        3.4141557940      -0.6225154935       1.0227254438
C       -2.5136166203       0.4825566451      -0.3218043522
F       -2.6090953352       1.7286455378      -0.7780451087
F       -2.4497265018       0.5235255748       1.0060098572
F       -3.6151976185      -0.1800026556      -0.6714252166
