          35
  Built with Packmol                                             
  C           -1.354512        0.037735        0.105429
  S            0.079364        0.744433       -0.693704
  C            1.273580       -0.457568       -0.125395
  O            0.382670        2.023725        0.013501
  H           -1.560135       -0.945443       -0.320539
  H           -2.196763        0.700935       -0.091972
  H           -1.177428       -0.035630        1.179420
  H            1.035102       -1.434693       -0.548067
  H            2.252134       -0.137777       -0.483566
  H            1.265987       -0.495717        0.964894
  Cl           0.605817        4.082174        3.794657
  C            2.247151        3.801870        4.394077
  Cl           2.642950        4.848419        5.765344
  H            2.943820        4.015339        3.591012
  H            2.318208        2.770637        4.721764
  Cl          -5.174965       -4.162619        1.562164
  C           -3.606255       -3.650903        0.922517
  Cl          -3.318615       -1.922082        1.168962
  H           -3.592165       -3.849555       -0.143396
  H           -2.830599       -4.202154        1.442469
  Cl          -0.094731       -1.537233       -5.031594
  C           -0.203343        0.145396       -4.494179
  Cl          -0.450690        0.271406       -2.746256
  H           -1.048783        0.607618       -4.991587
  H            0.727738        0.642661       -4.742546
  Cl          -3.147309       -2.922508       -3.485129
  C           -4.338298       -4.189318       -3.814659
  Cl          -4.602453       -4.419812       -5.549417
  H           -5.279820       -3.897032       -3.363064
  H           -3.967972       -5.120525       -3.400434
  Cl          -3.226029        2.505535       -3.429114
  C           -4.234103        1.343012       -4.303288
  Cl          -4.055383       -0.300538       -3.671550
  H           -3.928781        1.342600       -5.343773
  H           -5.271033        1.639641       -4.190776
