         260
  Built with Packmol                                             
  C           -1.354512        0.037735        0.105429
  S            0.079364        0.744433       -0.693704
  C            1.273580       -0.457568       -0.125395
  O            0.382670        2.023725        0.013501
  H           -1.560135       -0.945443       -0.320539
  H           -2.196763        0.700935       -0.091972
  H           -1.177428       -0.035630        1.179420
  H            1.035102       -1.434693       -0.548067
  H            2.252134       -0.137777       -0.483566
  H            1.265987       -0.495717        0.964894
  Cl           5.811017        7.027487        5.264369
  C            5.832778        5.306251        4.853609
  Cl           7.476125        4.649955        4.822323
  H            5.399754        5.186392        3.866718
  H            5.266592        4.769545        5.606770
  Cl           1.235593        7.268108        3.921087
  C            0.274362        5.807671        4.194967
  Cl          -1.313586        6.175364        4.884543
  H            0.809844        5.173746        4.892985
  H            0.124808        5.314866        3.240688
  Cl          -9.142064       -1.175577       -6.959619
  C           -8.084664       -0.363304       -8.123220
  Cl          -6.454118       -1.051409       -8.134430
  H           -8.010895        0.681922       -7.844127
  H           -8.511450       -0.483979       -9.112746
  Cl          -8.338904        0.416610       -0.269318
  C           -7.572026        0.713481       -1.836359
  Cl          -5.963009       -0.016449       -1.939117
  H           -7.468487        1.784945       -1.967032
  H           -8.194409        0.274624       -2.608314
  Cl           8.545959       -2.980660        4.307848
  C            6.891025       -2.523907        3.878405
  Cl           6.156860       -3.668964        2.746089
  H            6.919022       -1.548476        3.405562
  H            6.295292       -2.512334        4.784407
  Cl          -9.644297        9.437652       -2.009623
  C           -9.236472        8.163422       -0.851233
  Cl          -7.500658        7.819191       -0.823855
  H           -9.758149        7.258651       -1.142909
  H           -9.532986        8.495023        0.137701
  Cl           9.777872        2.169950       -4.775133
  C            8.054643        2.561221       -4.871263
  Cl           7.034403        1.197504       -4.389932
  H            7.820187        2.815367       -5.899014
  H            7.855608        3.388607       -4.199186
  Cl           3.768888       -6.641473       -2.084861
  C            2.068238       -6.386831       -2.502947
  Cl           1.695468       -4.676369       -2.763055
  H            1.458333       -6.746879       -1.681842
  H            1.859640       -6.923812       -3.421647
  Cl          -6.519369        4.846813        5.159755
  C           -7.851956        5.418600        6.174212
  Cl          -9.064430        4.159734        6.452517
  H           -8.333008        6.248344        5.668302
  H           -7.445076        5.716936        7.134063
  Cl          -4.369207       10.336117       -2.910470
  C           -5.664788        9.683913       -1.896590
  Cl          -5.441327        7.961412       -1.556962
  H           -6.604352        9.807644       -2.423601
  H           -5.661386       10.219606       -0.953779
  Cl          -9.942293       -0.255134        2.467210
  C           -8.266246        0.304896        2.562532
  Cl          -7.983917        1.734754        1.558496
  H           -7.620693       -0.491597        2.209414
  H           -8.052738        0.565619        3.593215
  Cl           7.079621        5.391646       -5.964511
  C            7.488771        5.346065       -7.685665
  Cl           7.934253        6.942394       -8.306612
  H            6.619578        4.998563       -8.233001
  H            8.335824        4.681804       -7.816542
  Cl           8.209358        8.785767        0.723504
  C            8.541422        8.119735        2.329115
  Cl          10.262569        8.188614        2.735563
  H            8.231248        7.080718        2.337359
  H            7.995698        8.705945        3.060151
  Cl          -0.597433       -1.177405        6.935646
  C            0.688018       -1.965522        6.009180
  Cl           0.632066       -3.728097        6.159147
  H            1.642778       -1.621727        6.391372
  H            0.559947       -1.709024        4.963390
  Cl           6.377956       10.059312       -4.785355
  C            7.272294        9.057420       -5.937841
  Cl           7.900259        7.581479       -5.189810
  H            8.111897        9.633925       -6.310049
  H            6.596843        8.772746       -6.736963
  Cl          -8.143474        1.129143       -4.988186
  C           -9.467350        0.024629       -4.589122
  Cl         -10.348949        0.537181       -3.142621
  H           -9.046662       -0.956959       -4.401136
  H          -10.160920        0.009690       -5.422553
  Cl          -0.447619       -0.029152       -8.810150
  C           -0.826808        1.549353       -8.105602
  Cl           0.587209        2.612458       -8.054056
  H           -1.173060        1.394311       -7.089776
  H           -1.585619        2.022336       -8.719087
  Cl          -4.936751       -1.896402       -1.428955
  C           -6.036040       -1.367934       -0.146717
  Cl          -6.024590       -2.471530        1.236844
  H           -7.041827       -1.339626       -0.550972
  H           -5.714751       -0.390393        0.195420
  Cl          -1.670068        7.840620       -2.040354
  C           -1.342318        7.850903       -0.301295
  Cl           0.128430        8.752659        0.093713
  H           -1.211032        6.825597        0.026338
  H           -2.177938        8.327046        0.199601
  Cl           4.759155        4.162575       -6.070778
  C            3.620898        5.501801       -6.277405
  Cl           2.232632        5.047485       -7.276709
  H            4.140548        6.317532       -6.767689
  H            3.254999        5.791428       -5.298576
  Cl           2.227132       -8.718998       -2.175083
  C            3.875741       -9.359331       -2.237642
  Cl           4.479008       -9.802885       -0.634015
  H            4.523984       -8.591150       -2.644473
  H            3.871867      -10.249049       -2.857528
  Cl          -1.400712        6.248205       -4.288761
  C           -1.974406        4.952772       -5.349222
  Cl          -1.886278        5.403400       -7.058450
  H           -3.010534        4.746597       -5.104756
  H           -1.346029        4.082738       -5.194134
  Cl          -3.770895        2.762863       -4.278109
  C           -3.922046        2.555393       -6.029098
  Cl          -4.259134        0.875866       -6.473904
  H           -2.984252        2.847344       -6.488596
  H           -4.745470        3.170499       -6.374768
  Cl          -3.360324       10.244104        5.359337
  C           -3.050884        8.548972        5.762606
  Cl          -4.199615        7.928448        6.957452
  H           -2.052788        8.475173        6.179965
  H           -3.150525        7.960245        4.857430
  Cl           6.627469        2.610984        1.354216
  C            7.076731        1.841129       -0.174619
  Cl           6.574279        2.799125       -1.575361
  H            6.583990        0.876648       -0.227678
  H            8.156145        1.740871       -0.200774
  Cl           5.659160        7.551976       -2.907387
  C            6.842436        6.241939       -2.782830
  Cl           8.473079        6.846596       -2.454677
  H            6.860826        5.709050       -3.727034
  H            6.548572        5.594763       -1.963880
  Cl           2.568506        3.260385       -5.057658
  C            1.327682        4.345718       -4.414028
  Cl           1.988009        5.485025       -3.231556
  H            0.571694        3.744260       -3.921523
  H            0.912007        4.914236       -5.238572
  Cl          -1.300030       -2.723043        9.646695
  C           -2.814158       -3.090797        8.807633
  Cl          -4.170746       -3.270182        9.930033
  H           -2.688705       -4.026032        8.273377
  H           -3.037002       -2.271528        8.133089
  Cl           0.023016        2.725731        6.884744
  C            1.607061        3.372027        7.337465
  Cl           2.877130        2.142465        7.251465
  H            1.549051        3.730299        8.359280
  H            1.858864        4.169797        6.647517
  Cl           6.763729        1.906967       -9.063230
  C            5.031699        1.545028       -9.032851
  Cl           4.283349        1.999898       -7.494878
  H            4.904773        0.476917       -9.170177
  H            4.552135        2.109928       -9.824544
  Cl           4.913276       -3.079434       -6.715289
  C            4.840929       -3.410023       -8.452334
  Cl           3.408905       -4.352707       -8.891591
  H            5.721195       -3.980501       -8.727139
  H            4.798374       -2.462290       -8.977560
  Cl          -3.917841       -7.475990        6.958156
  C           -3.762483       -7.010522        8.658466
  Cl          -2.075943       -7.001775        9.194935
  H           -4.306911       -7.730390        9.259482
  H           -4.161506       -6.008972        8.774863
  Cl          -3.568107       -3.564889       -9.078097
  C           -3.965195       -5.277692       -9.279287
  Cl          -5.709338       -5.569596       -9.208209
  H           -3.494331       -5.832877       -8.475616
  H           -3.606107       -5.598343      -10.250940
  Cl           9.074875       -2.634993       -8.198032
  C            7.869406       -1.339975       -8.238344
  Cl           7.739165       -0.601274       -9.841357
  H            8.170453       -0.572752       -7.533665
  H            6.905468       -1.764278       -7.980157
  Cl           3.373932       -6.324370        6.457439
  C            3.939955       -4.727109        5.947317
  Cl           2.743381       -3.882801        4.953512
  H            4.840695       -4.857515        5.357831
  H            4.125341       -4.132373        6.834893
  Cl          -0.762435        3.182374        4.733938
  C           -2.301987        3.718587        5.422494
  Cl          -3.423499        4.292246        4.179345
  H           -2.102781        4.537384        6.104930
  H           -2.759135        2.876651        5.930460
  Cl           8.928160      -10.046334        5.075215
  C            7.392232       -9.167261        5.073102
  Cl           7.624916       -7.419997        5.231911
  H            6.802805       -9.509982        5.916281
  H            6.891584       -9.359328        4.130588
  Cl          -3.770650        8.250821       -2.955119
  C           -3.905892        6.720245       -3.833128
  Cl          -3.022333        5.412726       -3.031872
  H           -3.485914        6.857694       -4.823359
  H           -4.953812        6.445026       -3.877709
  Cl           7.767447       -1.732700       -3.033200
  C            8.689343       -1.259042       -1.598764
  Cl          10.252435       -0.542857       -2.018429
  H            8.870817       -2.146398       -1.002529
  H            8.112870       -0.520878       -1.052264
  Cl          -1.510198       -9.012488       -0.690397
  C           -0.181458       -8.270782        0.213026
  Cl           1.367050       -9.065399       -0.107906
  H           -0.397404       -8.361533        1.271782
  H           -0.100654       -7.233116       -0.091262
  Cl           2.175280        9.080865       -9.081492
  C            2.624878        7.406296       -9.435796
  Cl           1.229546        6.430007       -9.917667
  H            3.050942        6.971206       -8.538579
  H            3.335750        7.410846      -10.254643
  Cl           4.130986        9.343955        1.632845
  C            5.797106        8.961182        2.090425
  Cl           6.908736       10.290214        1.729530
  H            6.113383        8.090547        1.526692
  H            5.822781        8.777020        3.158740
  Cl          -1.331335        0.714038       10.105519
  C           -0.609896        2.191957        9.451963
  Cl          -1.704282        3.033786        8.344743
  H            0.285476        1.920087        8.904033
  H           -0.386312        2.856145       10.279450
  Cl          -6.063202       -3.164657      -10.234273
  C           -7.563478       -3.381947       -9.321142
  Cl          -8.043445       -5.082683       -9.224094
  H           -8.351533       -2.834355       -9.826060
  H           -7.404310       -3.015515       -8.313042
  Cl          -0.708306       -2.033010       -5.283921
  C           -2.033754       -1.224252       -4.434834
  Cl          -1.931988        0.537728       -4.566596
  H           -1.978278       -1.490663       -3.385177
  H           -2.969007       -1.545059       -4.880093
  Cl          -6.304695        2.957223       -0.199317
  C           -7.569002        4.150140       -0.531476
  Cl          -6.900661        5.690199       -1.091682
  H           -8.116215        4.330807        0.387082
  H           -8.212907        3.755735       -1.309744
  Cl           1.693145        1.330738       -4.131770
  C            0.830214       -0.102786       -4.708146
  Cl           1.936618       -1.365817       -5.267534
  H            0.200429        0.190896       -5.540584
  H            0.246362       -0.501860       -3.886119
  Cl           1.191559       -7.370290        5.669653
  C            0.129792       -7.441286        7.083676
  Cl           0.975784       -8.029461        8.522649
  H           -0.683687       -8.123958        6.864490
  H           -0.232419       -6.439783        7.287795
  Cl           4.865145        8.803091       -0.603091
  C            4.928193        7.048461       -0.381389
  Cl           3.971235        6.518349        1.009836
  H            5.960751        6.763674       -0.212419
  H            4.524019        6.578370       -1.271068
  Cl          -7.501204       -8.589078       -6.259510
  C           -6.441762       -7.253066       -6.733329
  Cl          -7.056434       -5.687923       -6.181244
  H           -6.383013       -7.232802       -7.815905
  H           -5.468654       -7.414285       -6.282840
