         309
  Built with Packmol                                             
  C           -0.757268       -0.624291       -0.167344
  C            0.647936       -0.755699        0.016459
  C            1.259785        0.443043        0.219835
  S            0.136838        1.729184        0.189529
  C           -1.171660        0.670388       -0.097712
  H           -1.426724       -1.456016       -0.343165
  H            1.177046       -1.699373       -0.002530
  H            2.309498        0.636715        0.385380
  H           -2.175452        1.056049       -0.200452
  C            5.550458       -0.014336       -5.329944
  C            5.357612       -0.824623       -6.517970
  N            5.205050       -1.465744       -7.457805
  H            5.271438        1.017415       -5.542424
  H            4.928373       -0.397721       -4.521542
  H            6.597106       -0.051014       -5.028770
  C           -5.079706       -6.015626       -6.614613
  C           -4.656592       -7.096716       -5.744338
  N           -4.321940       -7.952016       -5.055809
  H           -4.278009       -5.772960       -7.311681
  H           -5.964010       -6.321346       -7.173210
  H           -5.316709       -5.136372       -6.016060
  C           -3.558066        6.657137       -5.357189
  C           -4.070488        7.564616       -6.366676
  N           -4.475943        8.282488       -7.165343
  H           -2.961751        7.213807       -4.634668
  H           -4.389556        6.174574       -4.844114
  H           -2.936131        5.897775       -5.830570
  C            8.877514       -3.634687       -2.588335
  C            9.365538       -2.279858       -2.765619
  N            9.751672       -1.208012       -2.905790
  H            8.526344       -4.024213       -3.543563
  H            9.682553       -4.266765       -2.214332
  H            8.055290       -3.636070       -1.873165
  C            5.158289        2.105226        0.035597
  C            5.043264        2.919727       -1.159609
  N            4.952200        3.564046       -2.105210
  H            5.667754        2.670909        0.815314
  H            4.164366        1.824851        0.383441
  H            5.729449        1.204888       -0.189551
  C           -8.216528       -2.382861       -4.540794
  C           -8.349329       -3.564489       -3.709361
  N           -8.454304       -4.499304       -3.051560
  H           -9.204540       -2.034793       -4.841114
  H           -7.711489       -1.596725       -3.980068
  H           -7.633178       -2.624831       -5.428869
  C            5.444184       -3.550859        4.427896
  C            6.854288       -3.214724        4.366413
  N            7.969889       -2.948889        4.317769
  H            4.848005       -2.667661        4.199765
  H            5.223330       -4.333214        3.702202
  H            5.196555       -3.905629        5.428067
  C            4.631053       -4.535216       -1.150884
  C            5.740513       -5.357731       -1.595550
  N            6.618266       -6.008466       -1.947252
  H            3.951664       -4.357087       -1.984078
  H            4.095605       -5.045862       -0.350868
  H            5.008188       -3.581752       -0.781834
  C           -0.559297        8.546986        6.836776
  C           -0.589959        9.105244        8.175644
  N           -0.614308        9.546916        9.234857
  H            0.368513        7.993808        6.692990
  H           -1.405766        7.874011        6.702299
  H           -0.617635        9.351585        6.104150
  C            3.275947        6.342417        5.014459
  C            3.448908        7.597408        4.307182
  N            3.585749        8.590226        3.747550
  H            2.901205        6.537983        6.018866
  H            2.563083        5.716390        4.478359
  H            4.232896        5.825242        5.080050
  C            2.706053        2.912828        6.995126
  C            3.248463        2.726821        8.327925
  N            3.677620        2.579583        9.382319
  H            2.382929        3.946405        6.873385
  H            3.471572        2.683912        6.254136
  H            1.854233        2.248530        6.851477
  C           -0.187322       -5.780563       -8.271139
  C            0.965530       -5.534950       -9.117168
  N            1.877645       -5.340635       -9.786414
  H           -1.018922       -6.133445       -8.880587
  H            0.060822       -6.536150       -7.526156
  H           -0.474229       -4.857611       -7.767783
  C            2.551428        0.093868       -8.813460
  C            2.944119       -0.063554       -7.425594
  N            3.254794       -0.188003       -6.327598
  H            2.156519       -0.849245       -9.190416
  H            1.783958        0.863614       -8.890723
  H            3.417241        0.386232       -9.407105
  C           -4.381642       -8.414282        0.843427
  C           -5.443669       -7.451314        1.066929
  N           -6.283858       -6.689443        1.243663
  H           -4.453107       -9.214202        1.579994
  H           -4.475086       -8.835218       -0.157358
  H           -3.414884       -7.920501        0.938737
  C            8.599136        8.106602        3.699430
  C            8.339551        6.714227        3.384682
  N            8.134120        5.612670        3.135742
  H            9.156548        8.567427        2.884296
  H            7.654416        8.632813        3.833941
  H            9.182297        8.170885        4.617752
  C            9.182475        2.099066       -8.209709
  C            7.990147        2.068174       -9.035881
  N            7.046849        2.043826       -9.689484
  H            9.724862        1.159915       -8.316122
  H            9.822531        2.923480       -8.523010
  H            8.900320        2.237272       -7.166248
  C           -2.819890       -4.982687        1.522645
  C           -3.306915       -4.361973        0.304991
  N           -3.692131       -3.870874       -0.658353
  H           -3.550700       -5.707483        1.880551
  H           -1.876480       -5.489799        1.321889
  H           -2.664624       -4.219457        2.284811
  C            8.704103        7.885069       -7.900727
  C            8.653238        8.163438       -6.477673
  N            8.613047        8.383744       -5.351862
  H            7.954879        7.135073       -8.153078
  H            8.502793        8.799018       -8.458992
  H            9.693056        7.511086       -8.164608
  C            6.438670        7.004683        8.546471
  C            6.903065        7.175052        7.182481
  N            7.270454        7.309929        6.103391
  H            6.681880        6.000286        8.892224
  H            6.924326        7.736397        9.191624
  H            5.359220        7.148873        8.585474
  C           -7.153384        3.431028       -0.566405
  C           -7.596201        2.119950       -0.130345
  N           -7.946519        1.082739        0.214724
  H           -7.397986        3.567453       -1.619528
  H           -7.652550        4.199740        0.023005
  H           -6.075327        3.515872       -0.431803
  C            7.695435        5.361519       -2.226425
  C            7.121983        6.295748       -3.176966
  N            6.668241        7.034871       -3.928908
  H            8.693345        5.072434       -2.555238
  H            7.760335        5.832117       -1.245704
  H            7.065555        4.474709       -2.160517
  C           -3.256116        4.849428        8.792780
  C           -2.301860        4.956397        7.705070
  N           -1.546981        5.041066        6.844494
  H           -2.730160        4.616711        9.718374
  H           -3.787310        5.794064        8.906724
  H           -3.971454        4.056869        8.574459
  C            5.764826       -3.860401       -4.278867
  C            4.617446       -2.994091       -4.083454
  N            3.709683       -2.308749       -3.928942
  H            6.262251       -4.028513       -3.323975
  H            5.435875       -4.815338       -4.687981
  H            6.462590       -3.391544       -4.972281
  C           -1.298672        9.134851       -6.419267
  C           -0.403304        8.036103       -6.729473
  N            0.305004        7.166830       -6.974967
  H           -0.861343        9.751893       -5.634721
  H           -1.455042        9.741357       -7.311000
  H           -2.255696        8.740929       -6.078014
  C           -7.017752       -3.814327       -0.505014
  C           -6.792356       -2.677905       -1.378456
  N           -6.614055       -1.778897       -2.069538
  H           -7.139108       -3.467843        0.521013
  H           -7.918757       -4.341775       -0.817230
  H           -6.165675       -4.491473       -0.559445
  C           -4.576496       -0.628073       -4.597162
  C           -4.775682       -2.055083       -4.767830
  N           -4.933310       -3.184021       -4.902931
  H           -3.813609       -0.454018       -3.838730
  H           -4.254472       -0.188881       -5.541036
  H           -5.511017       -0.163848       -4.283012
  C           -4.814546        0.274545       -1.008560
  C           -6.189528        0.406284       -1.452666
  N           -7.277346        0.510439       -1.803954
  H           -4.244389        1.148889       -1.321537
  H           -4.787740        0.195656        0.077970
  H           -4.373389       -0.620428       -1.446654
  C            8.714724        3.398151        1.674057
  C            8.298999        2.017651        1.837007
  N            7.970095        0.925485        1.965830
  H            9.186800        3.748071        2.591777
  H            9.425851        3.470678        0.851544
  H            7.845466        4.018008        1.455673
  C            8.732643        1.960614       -2.767342
  C            7.780529        2.248085       -3.823751
  N            7.027211        2.475516       -4.659448
  H            9.746022        2.114622       -3.137280
  H            8.551745        2.624316       -1.922201
  H            8.618958        0.925929       -2.444811
  C           -4.140246       -6.498731       -1.543055
  C           -2.751135       -6.518087       -1.124540
  N           -1.652175       -6.533320       -0.793394
  H           -4.428494       -7.487922       -1.897914
  H           -4.771696       -6.219066       -0.700115
  H           -4.269424       -5.774507       -2.347005
  C           -6.879696       -1.049750        4.357377
  C           -6.155450       -2.180065        3.806907
  N           -5.582401       -3.074238        3.371396
  H           -7.742771       -1.407299        4.918421
  H           -6.225574       -0.485350        5.021504
  H           -7.217447       -0.403101        3.547875
  C           -5.626506        1.267305       -7.603689
  C           -4.769090        0.578605       -8.550099
  N           -4.090829        0.033753       -9.298898
  H           -5.023250        1.669907       -6.790359
  H           -6.144873        2.082998       -8.107106
  H           -6.358856        0.569074       -7.199140
  C            8.384168        5.111324       -6.268781
  C            7.772910        5.001783       -7.580087
  N            7.289403        4.915086       -8.617539
  H            7.611501        5.277182       -5.518456
  H            8.920469        4.191235       -6.037901
  H            9.082152        5.948141       -6.259925
  C            8.894151       -5.527687       -6.324880
  C            9.217873       -4.204678       -6.824890
  N            9.473956       -3.157964       -7.220382
  H            9.332677       -6.282108       -6.977608
  H            9.293292       -5.645150       -5.317718
  H            7.812090       -5.654684       -6.301641
  C           -8.646496       -1.374021        1.444501
  C           -7.200474       -1.255667        1.431400
  N           -6.056477       -1.162048        1.420944
  H           -9.036028       -0.986810        2.385694
  H           -9.067102       -0.802998        0.617149
  H           -8.928172       -2.421564        1.340406
  C           -5.981540        4.044021        6.949537
  C           -5.394478        2.850224        7.528645
  N           -4.929948        1.905804        7.986777
  H           -7.025995        4.120346        7.250867
  H           -5.439843        4.923108        7.297758
  H           -5.921913        3.990056        5.862773
  C            5.714808       -5.300089       -7.904776
  C            4.687913       -6.316197       -8.039578
  N            3.875437       -7.120007       -8.146220
  H            6.680796       -5.717374       -8.188061
  H            5.481232       -4.456532       -8.553884
  H            5.757651       -4.959052       -6.870666
  C            7.072587       -0.129747        5.344688
  C            8.062767        0.929648        5.295844
  N            8.846104        1.767799        5.257286
  H            7.286019       -0.865059        4.569268
  H            7.103858       -0.614073        6.320361
  H            6.080268        0.289997        5.181468
  C            2.687639        5.914865       -4.566922
  C            2.276057        4.731574       -3.835086
  N            1.950390        3.795488       -3.256049
  H            3.129680        5.620340       -5.518429
  H            1.821307        6.549454       -4.752002
  H            3.422557        6.468306       -3.982866
  C           -1.273169        6.230812        1.540357
  C           -0.010914        6.944093        1.596052
  N            0.987696        7.508404        1.640021
  H           -1.705621        6.175387        2.539069
  H           -1.960467        6.756089        0.877641
  H           -1.106514        5.222480        1.162182
  C            3.155691       -3.064987       -6.574232
  C            2.519220       -4.367952       -6.525774
  N            2.015617       -5.398738       -6.487490
  H            4.189401       -3.150919       -6.240212
  H            3.136397       -2.686967       -7.596101
  H            2.621771       -2.373255       -5.923109
  C            2.253149        2.920780       -6.737259
  C            0.951881        3.463244       -6.394340
  N           -0.077590        3.892463       -6.123118
  H            2.410918        1.984529       -6.202419
  H            2.300668        2.736415       -7.810217
  H            3.030349        3.631846       -6.458209
  C           -4.622777        8.115893        4.092115
  C           -3.938681        7.252930        5.036820
  N           -3.397464        6.570145        5.784142
  H           -4.619968        9.139933        4.464731
  H           -4.113057        8.080209        3.129618
  H           -5.651754        7.779039        3.968585
  C           -2.304450       -8.035766       -7.009642
  C           -1.193027       -8.466449       -7.836933
  N           -0.313803       -8.807220       -8.491488
  H           -1.974893       -7.241897       -6.339810
  H           -3.108582       -7.663022       -7.643614
  H           -2.669140       -8.877198       -6.420984
  C            1.437728        6.313522        8.770986
  C            1.835991        7.690696        8.547514
  N            2.151048        8.780244        8.370807
  H            1.823466        5.686865        7.967233
  H            1.838806        5.967367        9.723247
  H            0.350245        6.246523        8.791358
  C            7.622099       -2.850466        7.687525
  C            6.320481       -2.212930        7.620466
  N            5.290751       -1.708515        7.567332
  H            7.604596       -3.637966        8.440551
  H            7.867160       -3.283122        6.717864
  H            8.377327       -2.111679        7.954638
  C           -5.725512        4.742702        2.497632
  C           -5.533966        3.307535        2.591263
  N           -5.382469        2.172117        2.665254
  H           -5.104665        5.243156        3.240333
  H           -5.444047        5.084451        1.501904
  H           -6.772441        4.984102        2.679807
  C            6.078089        2.906143        6.651408
  C            6.913492        4.067806        6.891824
  N            7.574451        4.986791        7.082092
  H            5.578579        3.008628        5.688342
  H            6.694954        2.007855        6.644722
  H            5.330083        2.824747        7.439688
  C           -8.641537       -7.199633       -5.775198
  C           -9.092810       -8.211104       -6.712450
  N           -9.449901       -9.011259       -7.453961
  H           -7.599440       -7.382573       -5.514282
  H           -8.732355       -6.213657       -6.230271
  H           -9.252156       -7.238855       -4.873462
  C           -6.628680       -6.502416       -3.382703
  C           -7.033491       -5.563067       -4.411737
  N           -7.353816       -4.819882       -5.225783
  H           -5.655519       -6.923083       -3.634711
  H           -6.562761       -5.988065       -2.424275
  H           -7.362158       -7.305250       -3.312050
