          39
  Built with Packmol                                             
  C           -0.757268       -0.624291       -0.167344
  C            0.647936       -0.755699        0.016459
  C            1.259785        0.443043        0.219835
  S            0.136838        1.729184        0.189529
  C           -1.171660        0.670388       -0.097712
  H           -1.426724       -1.456016       -0.343165
  H            1.177046       -1.699373       -0.002530
  H            2.309498        0.636715        0.385380
  H           -2.175452        1.056049       -0.200452
  C           -3.359176       -1.564559        3.699695
  C           -2.858665       -0.383333        4.377450
  N           -2.462705        0.551131        4.913727
  H           -3.118005       -1.506406        2.638580
  H           -2.897029       -2.454093        4.127056
  H           -4.440350       -1.625144        3.821830
  C           -1.213194        3.763545       -4.026115
  C           -0.572848        4.178668       -2.792102
  N           -0.066171        4.507039       -1.815858
  H           -2.106006        4.365234       -4.194542
  H           -0.523615        3.899243       -4.858915
  H           -1.493311        2.712718       -3.956693
  C            4.383988        4.592497       -1.192600
  C            3.758520        5.064769       -2.413628
  N            3.263621        5.438432       -3.379574
  H            5.430856        4.359119       -1.385245
  H            4.321069        5.365791       -0.427389
  H            3.872223        3.696110       -0.843157
  C           -4.831427       -4.766703        1.910885
  C           -3.685701       -5.118998        2.728418
  N           -2.779323       -5.397788        3.375223
  H           -4.549392       -3.987225        1.203509
  H           -5.173317       -5.644812        1.363597
  H           -5.636679       -4.402225        2.548262
  C            3.590619       -0.105847       -4.091761
  C            4.732366        0.789450       -4.095825
  N            5.635593        1.497808       -4.098985
  H            3.894976       -1.087363       -4.454396
  H            3.203622       -0.199459       -3.077385
  H            2.811149        0.293346       -4.740294
