72
Coordinates from ORCA-job R5EOX_A03_RED_Compound_1 E -1837.269165119845
  O          -1.48378826300461      0.33296925006375      0.04265216231692
  C          -0.81481634278968     -0.67079197292856      0.10864982177909
  C          -1.18882676839328     -2.03085109614533      0.64251722199895
  C           0.16707408171553     -2.66257990771808      0.92611324869790
  C           1.05236379729965     -1.98573438491662     -0.11430893877831
  O           0.44551745695479     -0.69737175376831     -0.33995171717583
  H          -1.87500845669210     -1.95653396928808      1.49690422968863
  H          -1.72151978928484     -2.55523225049518     -0.16909810453192
  H           0.51246947565749     -2.40675336969458      1.93665675128885
  H           0.17430096459014     -3.75558630124797      0.82559195652154
  H           2.08112496089443     -1.81679823460204      0.22548319012146
  H           1.06579108255280     -2.52757537976757     -1.07147072365372
  O          -1.47104873144428     -3.75079370334463      3.67900931997119
  C          -0.69313551819445     -3.58604403885759      4.59030701968247
  C          -0.77581068738532     -4.10053941429563      6.00443476934206
  C           0.24623431517766     -3.23396239877426      6.73788945777503
  C           1.23781163076715     -2.91947125923939      5.62797177991986
  O           0.43086421210483     -2.87863805086374      4.43289259393894
  H          -1.80698533141030     -4.03766008671931      6.37465890215417
  H          -0.48892798418738     -5.16500711348698      5.97939225696410
  H          -0.23106509823591     -2.30506421880658      7.08102446375868
  H           0.71642805676461     -3.72730819376381      7.59836109459016
  H           1.74290396755301     -1.95125577905292      5.72164820486888
  H           1.98752756398038     -3.71290190016297      5.49034351216453
  O          -3.89336664503783      2.43848090884218      5.76244496220496
  C          -3.03956539668435      2.94213477987810      6.45476467391847
  C          -1.82806359841528      2.30903535117189      7.09012093769302
  C          -1.46968326376939      3.29787148703198      8.19300971117353
  C          -1.96220989714129      4.61374013251954      7.59838395813453
  O          -3.07522610185723      4.24759576925311      6.75658841767360
  H          -2.04219981493509      1.28196990558679      7.40885636953679
  H          -1.04024925433798      2.27183482428380      6.31792124132584
  H          -2.02422832880597      3.06660830283908      9.11408741876941
  H          -0.39973440871301      3.33250227617915      8.43093951883979
  H          -2.32937558376804      5.33510911499270      8.33712940888339
  H          -1.20613799422036      5.10115188092436      6.96469772788702
  O          -1.20647538978855      3.15234861654911      1.56401012805055
  C          -1.06590025478794      4.06479878188219      2.34292591045780
  C          -1.83708587970910      4.36487703780851      3.60166588209362
  C          -1.54627724787030      5.84185076917890      3.82596161109099
  C          -0.14647243647166      5.96318718818662      3.23503268798009
  O          -0.10649599185257      4.98645520309485      2.17484424218514
  H          -2.89117796705194      4.07619104166943      3.50879732550769
  H          -1.38068501873161      3.75026293288313      4.39762744345774
  H          -2.25777922490810      6.46636513834841      3.26390262209299
  H          -1.58175821966755      6.14240675894500      4.88162028985300
  H           0.07946962841754      6.94228276307411      2.79568233883076
  H           0.63554405687583      5.70436758373616      3.96452220695980
  O           2.83293882370316     -1.05258210934178      3.44137705301537
  C           2.62706969940143      0.09908277868169      3.13437914992912
  C           2.99769169953070      1.36217503335303      3.86775431897999
  C           2.09705762869274      2.40997536404767      3.22112603740539
  C           1.91987647435245      1.84097147532498      1.81515082461637
  O           2.01308129261480      0.41132771168048      1.98899890327880
  H           2.88010157799277      1.23951962789148      4.95102094985765
  H           4.06383913412234      1.54868821564525      3.65427899543638
  H           1.12977422507086      2.44100297299150      3.74338901631038
  H           2.52307325455018      3.42064539947329      3.21847232236991
  H           0.95184098053491      2.05835423779873      1.34455293127811
  H           2.73876598453318      2.15337426769616      1.14785340289526
  O           0.29127975946817      0.12330299935374      5.57997602296249
  C          -0.72306671915866      0.00756373874295      4.93121436350857
  C          -1.03238201458326      0.57495593786878      3.57739662526746
  C          -2.53532804508874      0.36390880931104      3.41661333466701
  C          -2.83145670592791     -0.75043883923568      4.41623641696531
  O          -1.77067201712203     -0.68438356219184      5.39467111412362
  H          -0.72607742928361      1.62513064153541      3.55210594842444
  H          -0.40576179144477      0.06312185515627      2.83137107612977
  H          -3.06931037759734      1.28165931831406      3.69839849312367
  H          -2.82869126832346      0.09679839658334      2.39451160112239
  H          -3.78613306419430     -0.64215131279681      4.94706722332807
  H          -2.78272946360178     -1.74795597886696      3.95308336699765
