35
Coordinates from ORCA-job R5EOX_A04_RED_Compound_1 E -1424.952375194721
  O          -0.42036182798500      0.38410327420937      0.45585996694577
  Cl         -1.34335074063409     -0.58582478844119     -0.06683039136534
  O          -2.15024754343914      0.01925567968695     -1.09845078241527
  O          -0.61734826937754     -1.69984047989250     -0.62017844293459
  O          -2.20411629976201     -1.05342931308565      0.99186608351103
  C          -4.04147749551228      1.94868517373080      1.01990627813646
  C          -4.88564831617387      2.02606011553607     -0.15711108340389
  N          -5.55835406381243      2.07915189845416     -1.08610017837969
  H          -3.73843175075069      0.91354937100840      1.17885717048243
  H          -3.15267401435883      2.56212454365147      0.87476937097501
  H          -4.59356417206023      2.30941604255445      1.88737704337693
  C          -2.49519653590962     -2.62640313778183     -3.47031162597296
  C          -3.68248104034172     -1.82978077279022     -3.71342181972937
  N          -4.62521244781226     -1.20228895632761     -3.90341233297761
  H          -1.99623617836932     -2.27238755436018     -2.56734391742496
  H          -2.77739289541000     -3.67155253448217     -3.34459703182389
  H          -1.81552630676878     -2.53540490307768     -4.31751440949196
  C          -5.19426838622426     -1.49796462062501     -0.37618283379992
  C          -4.73797266348458     -2.87257006598762     -0.45425928600752
  N          -4.37435657377960     -3.96000952402450     -0.51814828820400
  H          -6.06649533769219     -1.36465026639872     -1.01555609312798
  H          -5.46041414244583     -1.26201036388189      0.65410105040471
  H          -4.39144151667494     -0.83837402151840     -0.70480762217739
  C          -5.07339565152741     -4.01451968305385      3.00001663579677
  C          -3.65776991223396     -4.32981618531571      2.95616840195432
  N          -2.53751671614668     -4.57930602442157      2.92709165205585
  H          -5.63594515884809     -4.78736679220892      2.47696614970951
  H          -5.40323998315718     -3.96427620515374      4.03746921022995
  H          -5.24913421709373     -3.05310919652925      2.51817770093447
  C          -3.79701662422010     -0.70080974211440      3.86753728374526
  C          -2.93295501878829      0.45133266205851      4.04351499258819
  N          -2.25192671769065      1.36623916949491      4.17498544434664
  H          -3.39336140198126     -1.32803471051616      3.07372343280590
  H          -3.84703530607090     -1.26668146526828      4.79747007276879
  H          -4.79773677346126     -0.36596762312760      3.59513919846806
