78
Coordinates from ORCA-job R5EOX_A02_RED_Compound_1 E -2288.199387243724
  C           0.41462758767170     -2.00888602547311     -1.30602769814309
  C           1.31562256069392     -1.68280432993822     -0.14366219967166
  C           1.27953831081735     -0.23393491201870      0.34995704337276
  O           2.66026652809683      0.04818644767977      0.61465517633383
  C           3.43290941506285     -0.86112995273100      0.02269407215117
  O           4.63356732409529     -0.80461158396123     -0.01341852020550
  O           2.70558173749401     -1.82899162717243     -0.52518293775520
  H           0.57701138396461     -3.04482155419528     -1.63372139222894
  H          -0.63389855061703     -1.90704283163344     -0.99372732355773
  H           0.59918317204403     -1.33135550669998     -2.15117360275854
  H           1.14959093546948     -2.37920544369466      0.69256094438548
  H           0.70498921507189     -0.10702792199904      1.27399439004834
  H           0.91935010040081      0.46488468815667     -0.41654272026023
  C          -3.11033497807455      4.39586895283571     -3.49079388942036
  C          -1.87047722296318      3.59700993194966     -3.19299700952650
  C          -1.57240358076339      2.45265828766144     -4.16198049122491
  O          -1.10233783252177      1.41053828235703     -3.29547679388580
  C          -1.47293957370355      1.67283666450806     -2.04209847891023
  O          -1.34290284614226      0.90760563594119     -1.12361002185528
  O          -2.01707748427721      2.88054698839138     -1.94279809755327
  H          -3.25408766075514      5.18754598891990     -2.74336645467992
  H          -3.00834212953230      4.86953248472488     -4.47826783827902
  H          -3.99545369748739      3.74298210031706     -3.50248815466923
  H          -0.99141575839317      4.25052755578396     -3.07706977028708
  H          -0.79031621128739      2.68978678538887     -4.89140755972597
  H          -2.47404163117025      2.09298076056508     -4.67898635469011
  C           2.21116487810216      3.84782571427880      3.28954570974423
  C           2.43640961664083      2.56854967928126      2.52001754302643
  C           3.15032969811164      1.45841211803289      3.30803358022780
  O           4.44118729830668      1.38049584398685      2.69244472476166
  C           4.48943355117090      2.15308178861204      1.61115953689544
  O           5.45096976049547      2.24780584663226      0.89338431553111
  O           3.35262320928950      2.81386027896436      1.43277021272417
  H           1.78062397769847      4.62339016116718      2.63988315744361
  H           1.51136163885583      3.65969729231868      4.11660442649831
  H           3.15960509899335      4.21745652077096      3.70775158388929
  H           1.50297471495192      2.20342878940264      2.06971511282865
  H           2.65982127864890      0.48189383124561      3.21604387769816
  H           3.28941275585559      1.70633736269341      4.36828639376161
  C           2.17458111052756      3.01719390770764     -3.29533202615089
  C           2.67874656360658      1.96660160749590     -2.33473557842389
  C           4.18975810429797      1.71825863511397     -2.37849994788977
  O           4.30153786431532      0.53880794635355     -3.18877425336705
  C           3.11296301403348     -0.05282084390856     -3.29882825569878
  O           2.92502006613387     -1.10906275669097     -3.84007021739959
  O           2.15746136501278      0.67397338303530     -2.72245976153518
  H           1.07873417263868      2.97607050752178     -3.35123059931983
  H           2.45937015843778      4.01695028779018     -2.94216948926919
  H           2.59202351030032      2.85842713591527     -4.30149838157544
  H           2.32944682963080      2.15552144189824     -1.31101712658110
  H           4.61720201509348      1.50420247904216     -1.39036499738626
  H           4.74443183399269      2.53221857890826     -2.86083805110323
  C           4.40118480930155      5.85758700869742      0.56140314344836
  C           4.48818192005382      5.07269314784481     -0.72141974575706
  C           5.89643320766680      4.83723006604476     -1.25894764945756
  O           5.72600557973822      4.97243309944217     -2.67578521847769
  C           4.58572447505854      5.62154417530913     -2.92705028540051
  O           4.24432740502955      5.98746178642358     -4.01919064001637
  O           3.88039481042166      5.80607920328171     -1.81263194014279
  H           3.35243726068170      6.00931092567301      0.85291998128632
  H           4.90431617220489      5.29323568190335      1.36003309536743
  H           4.89206198683835      6.83572801432464      0.45320988614727
  H           3.93572405122423      4.12482148917092     -0.63520611581272
  H           6.28331722392142      3.83711488056549     -1.03720815083542
  H           6.60918782955148      5.60310966128896     -0.91825682379362
  C           0.75377072999948      4.53931867948216     -0.43343123953354
  C          -0.37694222725881      4.76662718801044      0.53532683457011
  C          -0.93034945591447      3.49455446762238      1.18778153780213
  O          -2.34838251946079      3.64940514281425      1.07528638099315
  C          -2.63565266721199      4.64081888993728      0.23181677111171
  O          -3.74989011885865      4.92882051645001     -0.11653107564201
  O          -1.53611741534495      5.27988263177774     -0.15891084013967
  H           1.05148005463250      5.47907414399394     -0.91899440851042
  H           1.62500316276553      4.14029128187055      0.10605393144187
  H           0.45877506836355      3.80931133972033     -1.20015513616372
  H          -0.10659351159750      5.51657971441400      1.29410065163318
  H          -0.67057267758132      3.40583708893921      2.24881235817481
  H          -0.63646171480379      2.58185247010856      0.64922381119743
