70
Coordinates from ORCA-job R5EOX_A06_RED_Compound_1 E -2667.267962218366
  O           0.84933868119784      0.13957400703390      1.78647087961653
  Cl         -0.59248250776187     -0.16663699345416      1.70118047918649
  O          -1.36446866535182      1.01000596070592      2.12273233933335
  O          -0.94717725394130     -0.51026102491478      0.31056367090592
  O          -0.90821870510997     -1.29894581832737      2.58074380158795
  C           0.35701114358633      2.82490416167754     -0.44456712405401
  C           0.91991983192941      1.73834671864976     -1.31921355556196
  C           2.09395908390703      2.14716060740142     -2.20796355894878
  O           1.80354761769140      1.50061638661324     -3.45689182049578
  C           0.52896787867039      1.10919445519059     -3.47755894160488
  O          -0.01318154211655      0.64157456821700     -4.43966445647339
  O          -0.05870829057598      1.30964613665746     -2.29718006041826
  H          -0.49265572516070      2.45121317676750      0.13960714631373
  H           1.13457568302072      3.15326552561830      0.25545271095534
  H           0.03811249697113      3.68788088288449     -1.04360050907828
  H           1.17201240641236      0.85309658725816     -0.72303381914218
  H           3.06397394687283      1.78528815498881     -1.84466951573571
  H           2.13617159282712      3.23257130888355     -2.37649901343834
  C           4.03864461066081      1.25184653863065      0.87686699913113
  C           4.54329222713074      0.41912458953922      2.02549644028874
  C           6.05374331047286      0.47634368790754      2.25180665402151
  O           6.39292500165788     -0.88463924963777      2.54281491651942
  C           5.40146103820262     -1.68614327962920      2.15262096173157
  O           5.46718454648414     -2.88807119119941      2.16366715038429
  O           4.34017849653453     -0.99228981831598      1.76255514924985
  H           2.95173854915846      1.14212849108753      0.76721549266655
  H           4.25967198004482      2.31128010682655      1.07329925154400
  H           4.53108366306290      0.95071219029840     -0.05861926743451
  H           3.99526254099538      0.64277814476221      2.95217512705895
  H           6.34341960560067      1.10469212759074      3.10048698648683
  H           6.59865902832808      0.78587610497606      1.34927917350033
  C           1.94076637125645     -3.22332432011017      2.70184547238978
  C           0.84550801733307     -4.19718574489116      2.35595229842276
  C           1.26546430421499     -5.67044271522817      2.36637328478591
  O           0.66081821409161     -6.19887633158041      1.17935284259133
  C           0.24711296338524     -5.20082733978394      0.39716768444654
  O          -0.22194657267734     -5.35690454501154     -0.69966427423769
  O           0.41564110479606     -4.02136058024879      0.98477914381129
  H           1.58831995370106     -2.18934611232638      2.59380421311538
  H           2.24601544019005     -3.37784909055825      3.74682177364121
  H           2.81728146564849     -3.38179450907651      2.05814194720707
  H          -0.04425173394594     -4.03270125169390      2.98116399011588
  H           0.88648457128710     -6.22298045914485      3.23383705600513
  H           2.35657866937328     -5.79462286714072      2.28852101248866
  C           0.24339111840467     -2.52494042406085     -2.57474692585719
  C           1.61861517352995     -2.78174934071112     -2.00273961180666
  C           1.95116036494144     -1.96127142830499     -0.75267696771861
  O           2.78475768185107     -0.91505299568406     -1.26392176628533
  C           3.23744717037200     -1.24136594310451     -2.47082938251849
  O           4.07499363170156     -0.61969799729914     -3.07492643280351
  O           2.63841202142880     -2.33785407441144     -2.92993991442548
  H           0.12116938839392     -3.03392586372427     -3.54154396603536
  H          -0.51336693864368     -2.91350459708621     -1.87805740695726
  H           0.07091258598393     -1.44815708236961     -2.71484803553213
  H           1.78949566298804     -3.85394596844122     -1.83887834237267
  H           2.52858481391854     -2.52600131742224     -0.01188381484301
  H           1.06777475735849     -1.51053883342526     -0.28824302621001
  C           4.08417969945762     -5.15420016905833     -0.19941812768868
  C           4.95543622087070     -4.36600847021394     -1.14343147210171
  C           6.45913081913858     -4.61549798740733     -0.99850993745031
  O           7.02333832197740     -3.29986888003492     -1.06700963951105
  C           6.06792933657591     -2.39113279605226     -0.87620124398739
  O           6.27217836122370     -1.21354864378675     -0.74368257014317
  O           4.86587169440183     -2.95233189416766     -0.85267130328621
  H           3.02946696326674     -4.86996281258469     -0.31460199284168
  H           4.17558603095242     -6.22604265299913     -0.42926915523353
  H           4.39606171614411     -4.98597057205463      0.84087889080798
  H           4.62924839262872     -4.48883677402736     -2.18654400026614
  H           6.87898643361880     -5.22567849313074     -1.80732094886544
  H           6.71768653745675     -5.05174936632934     -0.02234903894660
