35
Coordinates from ORCA-job R5EOX_A04_OX_Compound_1 E -1424.674453345137
  O          -0.34574793171878     -0.70007985162816      1.68857785503254
  Cl         -0.87406318879276     -1.15785263767311      0.47489387887448
  O          -0.74908963511892     -0.18852391257716     -0.59331141409420
  O          -0.43411926675749     -2.43470010485006      0.10317602450646
  O          -2.37295152847439     -1.09830046831008      0.49341693604713
  C          -3.88835854237615      2.03922092983099      0.49193692291848
  C          -4.00719463260516      1.70978778300772     -0.91608200453654
  N          -4.10507367895086      1.43910141007236     -2.02752199887879
  H          -4.40727576533589      1.28556786541923      1.08406620930437
  H          -2.83647159236444      2.06553658336326      0.77510741743855
  H          -4.33440938036195      3.01606272228263      0.67821593163503
  C          -2.97328133302273     -1.70584260377183     -3.26515700065986
  C          -4.39785206493029     -1.80920256742085     -3.51956173619015
  N          -5.52737728596726     -1.88851958232218     -3.70952908398993
  H          -2.75401464454489     -0.71517658802373     -2.86717448278017
  H          -2.67582003620195     -2.46716137879313     -2.54409187605972
  H          -2.42300855973787     -1.85329490066300     -4.19416067784585
  C          -5.59912302314179     -1.83904475211570     -0.05176597124735
  C          -4.96421220745805     -3.10173677459087     -0.37961152496766
  N          -4.45581772800923     -4.09753622000301     -0.64072122998773
  H          -6.64722224616544     -1.87024472921977     -0.34835773675828
  H          -5.53122148893687     -1.66317596471088      1.02187480331377
  H          -5.10182906625482     -1.03073715853488     -0.58813183180181
  C          -4.39166498744908     -4.88533063782427      2.87066329744488
  C          -3.36621054297101     -3.87840970922817      2.67785176693701
  N          -2.55846951756387     -3.07638144215677      2.52671065424874
  H          -4.32884344049392     -5.62709077358578      2.07489601869374
  H          -4.24810112438737     -5.37456284083616      3.83382033001704
  H          -5.37347448571173     -4.41239994299990      2.84958086131122
  C          -4.19419185109641     -0.08441805495393      3.83524288427568
  C          -3.24459344163800      1.01077550992287      3.88989981946357
  N          -2.49253131649058      1.87747646678388      3.92485145458923
  H          -3.84087388123992     -0.83728110196588      3.13032346144945
  H          -4.28843991992607     -0.53746902983684      4.82199892484975
  H          -5.16667266380286      0.28848345791355      3.51484411744672
