36
Coordinates from ORCA-job R5EOX_A01_RED_Compound_1 E -795.761350166046
  C          -0.80937576776483     -0.01557268031182      1.12503213305845
  C           0.25045954337264     -0.38312108746904      0.19603409081525
  N           1.08695469298023     -0.67093772460093     -0.54988829162546
  H          -1.75850937740143     -0.47360651565451      0.81090148589801
  H          -0.54664206039503     -0.35864528973025      2.13645817690321
  H          -0.91236894043609      1.07178967322860      1.13059868668923
  C           4.37717643457986      2.30268566134128      3.06537915853685
  C           3.09976474376791      1.75436811649270      2.64169511186674
  N           2.08651209124434      1.31574978504686      2.29744486771975
  H           4.92093007400962      1.55654231709837      3.65851188422026
  H           4.97735492104220      2.57275048066780      2.18144496530231
  H           4.21238891163045      3.20168862821420      3.67387545409558
  C           3.12518459880908     -3.33020469944602     -0.17317092132346
  C           3.63821180550143     -2.36539669522569      0.79970366801077
  N           4.06623976372141     -1.61016237448057      1.56490994207089
  H           3.71123614134970     -4.25854014419703     -0.11243922306818
  H           2.06676259871783     -3.54588729316642      0.06097011589372
  H           3.20290145855697     -2.92032845553618     -1.19059773368831
  C          -2.04856431728523     -3.46628713173891      2.75425811410312
  C          -0.94283560705267     -3.64750359253628      1.81949174897970
  N          -0.06217229732699     -3.76969264038850      1.07278452338834
  H          -2.27047247914229     -4.41962499736615      3.24578338847006
  H          -1.75323636559545     -2.71701308392762      3.51110909937290
  H          -2.94249820476698     -3.12332499871183      2.21703327296676
  C           1.69154091117179      4.61326194349599      0.99675554227843
  C           0.75408630787213      3.74356479206680      0.29787242906325
  N          -0.00295327157432      3.05259460232930     -0.25180476743798
  H           2.72294407294360      4.29290425657410      0.79250962828147
  H           1.56051570873711      5.65550562596849      0.66004679058174
  H           1.49582146343239      4.56102612471606      2.07079669060311
  C           2.90632305145525     -1.12383984806889      4.78446583871167
  C           1.51798200829313     -1.30770940472355      4.40218074162038
  N           0.41522767585819     -1.45145621405384      4.09346276820927
  H           3.19227001102779     -1.88625328262521      5.51781562007962
  H           3.54352136648137     -1.21601770417903      3.89470508112984
  H           3.03324733218428     -0.12910114910227      5.22669491822195
