10
tier2-directive-jojo-v4; ORCA geometry archive
C       -1.3545117348       0.0377348510       0.1054290112
S        0.0793639942       0.7444334092      -0.6937036709
C        1.2735795434      -0.4575676786      -0.1253951523
O        0.3826696636       2.0237245143       0.0135006622
H       -1.5601345539      -0.9454427226      -0.3205392838
H       -2.1967630023       0.7009345925      -0.0919721342
H       -1.1774278731      -0.0356299979       1.1794199129
H        1.0351023843      -1.4346931792      -0.5480673716
H        2.2521342911      -0.1377772332      -0.4835663116
H        1.2659872874      -0.4957165555       0.9648943382
