9
tier2-directive-jojo-v4; ORCA geometry archive
C       -0.7572679227      -0.6242913667      -0.1673437774
C        0.6479361767      -0.7556991014       0.0164587220
C        1.2597853812       0.4430432509       0.2198349400
S        0.1368378810       1.7291835137       0.1895289346
C       -1.1716596622       0.6703881477      -0.0977123045
H       -1.4267237735      -1.4560160777      -0.3431653834
H        1.1770457157      -1.6993728299      -0.0025297444
H        2.3094983448       0.6367152721       0.3853803226
H       -2.1754521411       1.0560491912      -0.2004517096
