31
{"structure_id":"as__TFSI__DME"}
O   0.3486303917 -1.4682219067 -0.2990876500
S  -1.0680200551 -1.2835753851 -0.6277141931
O  -1.4286067650 -1.6312669826 -2.0039692747
C  -1.9459555223 -2.5090884231  0.4002791742
F  -1.7248381235 -2.3166302473  1.7363099426
F  -1.5823427892 -3.7967380451  0.1350932157
F  -3.3018596281 -2.4509046832  0.2388555512
N  -1.7500000000  0.0000000000  0.0000000000
S  -1.5155267855  1.3046397321 -0.8658021032
O  -0.1297142080  1.6760436120 -1.1600466516
O  -2.4523530618  1.5001653258 -1.9762677903
C  -2.0499950145  2.4976778358  0.4071634612
F  -1.2912922153  2.4259860795  1.5416910926
F  -3.3387213974  2.2804713439  0.8107802295
F  -1.9946997239  3.7949461342 -0.0107008183
C   2.4144609604  1.1162883203 -0.5757772420
O   1.7500000000  0.0000000000  0.0000000000
C   1.4202965693  0.1910673791  1.3763962811
C   2.6180343400 -0.0491909766  2.2986934818
O   2.2601020190  0.0185620350  3.6796252316
C   2.1559264617  1.3498433706  4.1653843837
H   3.3850802166  1.2824629470 -0.1012804628
H   1.7960663388  2.0154921442 -0.4962360682
H   2.5823213555  0.9044663850 -1.6353145762
H   0.6338664257 -0.5300690277  1.6266462618
H   0.9793991998  1.1826856531  1.5275276903
H   3.0089354409 -1.0559056724  2.1119917114
H   3.4434985873  0.6391500170  2.0857756092
H   1.3464514039  1.8876490933  3.6650031273
H   1.9296706460  1.3065233547  5.2343088745
H   3.1022250552  1.8830791467  4.0331505087
