25
{"structure_id":"as__TFSI__DMSO"}
O   0.3486303917 -1.4682219067 -0.2990876500
S  -1.0680200551 -1.2835753851 -0.6277141931
O  -1.4286067650 -1.6312669826 -2.0039692747
C  -1.9459555223 -2.5090884231  0.4002791742
F  -1.7248381235 -2.3166302473  1.7363099426
F  -1.5823427892 -3.7967380451  0.1350932157
F  -3.3018596281 -2.4509046832  0.2388555512
N  -1.7500000000  0.0000000000  0.0000000000
S  -1.5155267855  1.3046397321 -0.8658021032
O  -0.1297142080  1.6760436120 -1.1600466516
O  -2.4523530618  1.5001653258 -1.9762677903
C  -2.0499950145  2.4976778358  0.4071634612
F  -1.2912922153  2.4259860795  1.5416910926
F  -3.3387213974  2.2804713439  0.8107802295
F  -1.9946997239  3.7949461342 -0.0107008183
C   3.1660172179 -1.4171508102 -1.7724704590
S   3.0860578704  0.0237969304 -0.6815076943
C   2.9984330050  1.2510237841 -2.0078402528
O   1.7500000000  0.0000000000  0.0000000000
H   2.2855843924 -1.4451574284 -2.4188933517
H   3.1920542537 -2.3190889371 -1.1564462599
H   4.0742852368 -1.3664469289 -2.3774265975
H   2.1284660097  1.0563420520 -2.6395571944
H   3.9125364033  1.2087724244 -2.6045969452
H   2.9055362285  2.2427117559 -1.5588611249
