21
{"structure_id":"as__TFSI__ACN"}
O   0.3486303917 -1.4682219067 -0.2990876500
S  -1.0680200551 -1.2835753851 -0.6277141931
O  -1.4286067650 -1.6312669826 -2.0039692747
C  -1.9459555223 -2.5090884231  0.4002791742
F  -1.7248381235 -2.3166302473  1.7363099426
F  -1.5823427892 -3.7967380451  0.1350932157
F  -3.3018596281 -2.4509046832  0.2388555512
N  -1.7500000000  0.0000000000  0.0000000000
S  -1.5155267855  1.3046397321 -0.8658021032
O  -0.1297142080  1.6760436120 -1.1600466516
O  -2.4523530618  1.5001653258 -1.9762677903
C  -2.0499950145  2.4976778358  0.4071634612
F  -1.2912922153  2.4259860795  1.5416910926
F  -3.3387213974  2.2804713439  0.8107802295
F  -1.9946997239  3.7949461342 -0.0107008183
C   1.7389399369 -0.0038817988 -2.6221374865
C   1.7451061126 -0.0017178737 -1.1602361602
N   1.7500000000  0.0000000000  0.0000000000
H   1.1110988492 -0.8129608135 -3.0070139798
H   1.3502187186  0.9421099762 -3.0106197925
H   2.7505837877 -0.1425206612 -3.0149209280
