17
{"structure_id":"as__PF6__DMSO"}
F  -0.2950000000  0.0000000000  0.0000000000
P  -1.8750000000  0.0000000000  0.0000000000
F  -3.4550000000  0.0000000000  0.0000000000
F  -1.8750000000  1.5800000000  0.0000000000
F  -1.8750000000 -1.5800000000  0.0000000000
F  -1.8750000000  0.0000000000  1.5800000000
F  -1.8750000000  0.0000000000 -1.5800000000
C   3.2910172179 -1.4171508102 -1.7724704590
S   3.2110578704  0.0237969304 -0.6815076943
C   3.1234330050  1.2510237841 -2.0078402528
O   1.8750000000  0.0000000000  0.0000000000
H   2.4105843924 -1.4451574284 -2.4188933517
H   3.3170542537 -2.3190889371 -1.1564462599
H   4.1992852368 -1.3664469289 -2.3774265975
H   2.2534660097  1.0563420520 -2.6395571944
H   4.0375364033  1.2087724244 -2.6045969452
H   3.0305362285  2.2427117559 -1.5588611249
