11
{"structure_id":"as__BF4__ACN"}
B  -1.7500000000  0.0000000000  0.0000000000
F  -0.9417096231  0.8082903769  0.8082903769
F  -0.9417096231 -0.8082903769 -0.8082903769
F  -2.5582903769  0.8082903769 -0.8082903769
F  -2.5582903769 -0.8082903769  0.8082903769
C   1.7389399369 -0.0038817988 -2.6221374865
C   1.7451061126 -0.0017178737 -1.1602361602
N   1.7500000000  0.0000000000  0.0000000000
H   1.1110988492 -0.8129608135 -3.0070139798
H   1.3502187186  0.9421099762 -3.0106197925
H   2.7505837877 -0.1425206612 -3.0149209280
