26
{"structure_id":"as__TDI__PC"}
C  -2.3799299206 -2.5209936611  0.3259743982
N  -2.5806078551 -3.5112286160  0.9035987728
C  -2.1203273760 -1.2136555696 -0.4885592774
C  -2.2349844351 -1.1048280025 -1.8601954257
N  -1.9345535087  0.1751188521 -2.2070249857
C  -1.6298061722  0.8605944884 -1.0600877182
N  -1.7500000000  0.0000000000  0.0000000000
C  -1.2427750352  2.3478773279 -0.9707147956
F  -0.2564951507  2.5942310606 -0.0534191659
F  -0.7754403960  2.8632559935 -2.1500072874
F  -2.2953047891  3.1456447781 -0.6101968735
C  -2.6424514561 -2.2717980208 -2.8152612944
N  -2.9485590606 -3.1619358175 -3.4996925676
C   2.2350266860 -3.9529304559  1.0419139248
C   2.9817518578 -2.7504285966  1.6037646482
C   2.2324574535 -2.0329998776  2.6883805578
O   1.4245403113 -1.1159080344  1.9717377370
C   2.0620296242 -0.8764683636  0.7871730229
O   1.7500000000  0.0000000000  0.0000000000
O   3.0951316955 -1.7521721104  0.6008720543
H   2.1115577546 -4.7296099006  1.8026602206
H   2.7853813269 -4.3770588019  0.1952120033
H   1.2453778234 -3.6740610881  0.6637102272
H   3.9765030062 -3.0567375635  1.9429328746
H   2.9006227682 -1.4606341561  3.3413267576
H   1.6169096402 -2.6941000438  3.3051953405
