19
{"structure_id":"as__TDI__ACN"}
C  -2.3799299206 -2.5209936611  0.3259743982
N  -2.5806078551 -3.5112286160  0.9035987728
C  -2.1203273760 -1.2136555696 -0.4885592774
C  -2.2349844351 -1.1048280025 -1.8601954257
N  -1.9345535087  0.1751188521 -2.2070249857
C  -1.6298061722  0.8605944884 -1.0600877182
N  -1.7500000000  0.0000000000  0.0000000000
C  -1.2427750352  2.3478773279 -0.9707147956
F  -0.2564951507  2.5942310606 -0.0534191659
F  -0.7754403960  2.8632559935 -2.1500072874
F  -2.2953047891  3.1456447781 -0.6101968735
C  -2.6424514561 -2.2717980208 -2.8152612944
N  -2.9485590606 -3.1619358175 -3.4996925676
C   1.7389399369 -0.0038817988 -2.6221374865
C   1.7451061126 -0.0017178737 -1.1602361602
N   1.7500000000  0.0000000000  0.0000000000
H   1.1110988492 -0.8129608135 -3.0070139798
H   1.3502187186  0.9421099762 -3.0106197925
H   2.7505837877 -0.1425206612 -3.0149209280
