15
{"structure_id":"as__BF4__DMSO"}
B  -1.7500000000  0.0000000000  0.0000000000
F  -0.9417096231  0.8082903769  0.8082903769
F  -0.9417096231 -0.8082903769 -0.8082903769
F  -2.5582903769  0.8082903769 -0.8082903769
F  -2.5582903769 -0.8082903769  0.8082903769
C   3.1660172179 -1.4171508102 -1.7724704590
S   3.0860578704  0.0237969304 -0.6815076943
C   2.9984330050  1.2510237841 -2.0078402528
O   1.7500000000  0.0000000000  0.0000000000
H   2.2855843924 -1.4451574284 -2.4188933517
H   3.1920542537 -2.3190889371 -1.1564462599
H   4.0742852368 -1.3664469289 -2.3774265975
H   2.1284660097  1.0563420520 -2.6395571944
H   3.9125364033  1.2087724244 -2.6045969452
H   2.9055362285  2.2427117559 -1.5588611249
