23
{"structure_id":"as__PF6__DME"}
F  -0.2950000000  0.0000000000  0.0000000000
P  -1.8750000000  0.0000000000  0.0000000000
F  -3.4550000000  0.0000000000  0.0000000000
F  -1.8750000000  1.5800000000  0.0000000000
F  -1.8750000000 -1.5800000000  0.0000000000
F  -1.8750000000  0.0000000000  1.5800000000
F  -1.8750000000  0.0000000000 -1.5800000000
C   2.5394609604  1.1162883203 -0.5757772420
O   1.8750000000  0.0000000000  0.0000000000
C   1.5452965693  0.1910673791  1.3763962811
C   2.7430343400 -0.0491909766  2.2986934818
O   2.3851020190  0.0185620350  3.6796252316
C   2.2809264617  1.3498433706  4.1653843837
H   3.5100802166  1.2824629470 -0.1012804628
H   1.9210663388  2.0154921442 -0.4962360682
H   2.7073213555  0.9044663850 -1.6353145762
H   0.7588664257 -0.5300690277  1.6266462618
H   1.1043991998  1.1826856531  1.5275276903
H   3.1339354409 -1.0559056724  2.1119917114
H   3.5684985873  0.6391500170  2.0857756092
H   1.4714514039  1.8876490933  3.6650031273
H   2.0546706460  1.3065233547  5.2343088745
H   3.2272250552  1.8830791467  4.0331505087
