13
{"structure_id":"as__PF6__ACN"}
F  -0.2950000000  0.0000000000  0.0000000000
P  -1.8750000000  0.0000000000  0.0000000000
F  -3.4550000000  0.0000000000  0.0000000000
F  -1.8750000000  1.5800000000  0.0000000000
F  -1.8750000000 -1.5800000000  0.0000000000
F  -1.8750000000  0.0000000000  1.5800000000
F  -1.8750000000  0.0000000000 -1.5800000000
C   1.8639399369 -0.0038817988 -2.6221374865
C   1.8701061126 -0.0017178737 -1.1602361602
N   1.8750000000  0.0000000000  0.0000000000
H   1.2360988492 -0.8129608135 -3.0070139798
H   1.4752187186  0.9421099762 -3.0106197925
H   2.8755837877 -0.1425206612 -3.0149209280
