18
{"structure_id":"as__BF4__PC"}
B  -1.7500000000  0.0000000000  0.0000000000
F  -0.9417096231  0.8082903769  0.8082903769
F  -0.9417096231 -0.8082903769 -0.8082903769
F  -2.5582903769  0.8082903769 -0.8082903769
F  -2.5582903769 -0.8082903769  0.8082903769
C   2.2350266860 -3.9529304559  1.0419139248
C   2.9817518578 -2.7504285966  1.6037646482
C   2.2324574535 -2.0329998776  2.6883805578
O   1.4245403113 -1.1159080344  1.9717377370
C   2.0620296242 -0.8764683636  0.7871730229
O   1.7500000000  0.0000000000  0.0000000000
O   3.0951316955 -1.7521721104  0.6008720543
H   2.1115577546 -4.7296099006  1.8026602206
H   2.7853813269 -4.3770588019  0.1952120033
H   1.2453778234 -3.6740610881  0.6637102272
H   3.9765030062 -3.0567375635  1.9429328746
H   2.9006227682 -1.4606341561  3.3413267576
H   1.6169096402 -2.6941000438  3.3051953405
