29
{"structure_id":"as__TDI__DME"}
C  -2.3799299206 -2.5209936611  0.3259743982
N  -2.5806078551 -3.5112286160  0.9035987728
C  -2.1203273760 -1.2136555696 -0.4885592774
C  -2.2349844351 -1.1048280025 -1.8601954257
N  -1.9345535087  0.1751188521 -2.2070249857
C  -1.6298061722  0.8605944884 -1.0600877182
N  -1.7500000000  0.0000000000  0.0000000000
C  -1.2427750352  2.3478773279 -0.9707147956
F  -0.2564951507  2.5942310606 -0.0534191659
F  -0.7754403960  2.8632559935 -2.1500072874
F  -2.2953047891  3.1456447781 -0.6101968735
C  -2.6424514561 -2.2717980208 -2.8152612944
N  -2.9485590606 -3.1619358175 -3.4996925676
C   2.4144609604  1.1162883203 -0.5757772420
O   1.7500000000  0.0000000000  0.0000000000
C   1.4202965693  0.1910673791  1.3763962811
C   2.6180343400 -0.0491909766  2.2986934818
O   2.2601020190  0.0185620350  3.6796252316
C   2.1559264617  1.3498433706  4.1653843837
H   3.3850802166  1.2824629470 -0.1012804628
H   1.7960663388  2.0154921442 -0.4962360682
H   2.5823213555  0.9044663850 -1.6353145762
H   0.6338664257 -0.5300690277  1.6266462618
H   0.9793991998  1.1826856531  1.5275276903
H   3.0089354409 -1.0559056724  2.1119917114
H   3.4434985873  0.6391500170  2.0857756092
H   1.3464514039  1.8876490933  3.6650031273
H   1.9296706460  1.3065233547  5.2343088745
H   3.1022250552  1.8830791467  4.0331505087
