28
{"structure_id":"as__TFSI__PC"}
O   0.3486303917 -1.4682219067 -0.2990876500
S  -1.0680200551 -1.2835753851 -0.6277141931
O  -1.4286067650 -1.6312669826 -2.0039692747
C  -1.9459555223 -2.5090884231  0.4002791742
F  -1.7248381235 -2.3166302473  1.7363099426
F  -1.5823427892 -3.7967380451  0.1350932157
F  -3.3018596281 -2.4509046832  0.2388555512
N  -1.7500000000  0.0000000000  0.0000000000
S  -1.5155267855  1.3046397321 -0.8658021032
O  -0.1297142080  1.6760436120 -1.1600466516
O  -2.4523530618  1.5001653258 -1.9762677903
C  -2.0499950145  2.4976778358  0.4071634612
F  -1.2912922153  2.4259860795  1.5416910926
F  -3.3387213974  2.2804713439  0.8107802295
F  -1.9946997239  3.7949461342 -0.0107008183
C   2.2350266860 -3.9529304559  1.0419139248
C   2.9817518578 -2.7504285966  1.6037646482
C   2.2324574535 -2.0329998776  2.6883805578
O   1.4245403113 -1.1159080344  1.9717377370
C   2.0620296242 -0.8764683636  0.7871730229
O   1.7500000000  0.0000000000  0.0000000000
O   3.0951316955 -1.7521721104  0.6008720543
H   2.1115577546 -4.7296099006  1.8026602206
H   2.7853813269 -4.3770588019  0.1952120033
H   1.2453778234 -3.6740610881  0.6637102272
H   3.9765030062 -3.0567375635  1.9429328746
H   2.9006227682 -1.4606341561  3.3413267576
H   1.6169096402 -2.6941000438  3.3051953405
