23
{"structure_id":"as__TDI__DMSO"}
C  -2.3799299206 -2.5209936611  0.3259743982
N  -2.5806078551 -3.5112286160  0.9035987728
C  -2.1203273760 -1.2136555696 -0.4885592774
C  -2.2349844351 -1.1048280025 -1.8601954257
N  -1.9345535087  0.1751188521 -2.2070249857
C  -1.6298061722  0.8605944884 -1.0600877182
N  -1.7500000000  0.0000000000  0.0000000000
C  -1.2427750352  2.3478773279 -0.9707147956
F  -0.2564951507  2.5942310606 -0.0534191659
F  -0.7754403960  2.8632559935 -2.1500072874
F  -2.2953047891  3.1456447781 -0.6101968735
C  -2.6424514561 -2.2717980208 -2.8152612944
N  -2.9485590606 -3.1619358175 -3.4996925676
C   3.1660172179 -1.4171508102 -1.7724704590
S   3.0860578704  0.0237969304 -0.6815076943
C   2.9984330050  1.2510237841 -2.0078402528
O   1.7500000000  0.0000000000  0.0000000000
H   2.2855843924 -1.4451574284 -2.4188933517
H   3.1920542537 -2.3190889371 -1.1564462599
H   4.0742852368 -1.3664469289 -2.3774265975
H   2.1284660097  1.0563420520 -2.6395571944
H   3.9125364033  1.2087724244 -2.6045969452
H   2.9055362285  2.2427117559 -1.5588611249
