20
{"structure_id":"as__PF6__PC"}
F  -0.2950000000  0.0000000000  0.0000000000
P  -1.8750000000  0.0000000000  0.0000000000
F  -3.4550000000  0.0000000000  0.0000000000
F  -1.8750000000  1.5800000000  0.0000000000
F  -1.8750000000 -1.5800000000  0.0000000000
F  -1.8750000000  0.0000000000  1.5800000000
F  -1.8750000000  0.0000000000 -1.5800000000
C   2.3600266860 -3.9529304559  1.0419139248
C   3.1067518578 -2.7504285966  1.6037646482
C   2.3574574535 -2.0329998776  2.6883805578
O   1.5495403113 -1.1159080344  1.9717377370
C   2.1870296242 -0.8764683636  0.7871730229
O   1.8750000000  0.0000000000  0.0000000000
O   3.2201316955 -1.7521721104  0.6008720543
H   2.2365577546 -4.7296099006  1.8026602206
H   2.9103813269 -4.3770588019  0.1952120033
H   1.3703778234 -3.6740610881  0.6637102272
H   4.1015030062 -3.0567375635  1.9429328746
H   3.0256227682 -1.4606341561  3.3413267576
H   1.7419096402 -2.6941000438  3.3051953405
