29
{"structure_id":"triad__Li__TFSI__PC__ACS"}
O  -1.4013696083 -1.4682219067 -0.2990876500
S  -2.8180200551 -1.2835753851 -0.6277141931
O  -3.1786067650 -1.6312669826 -2.0039692747
C  -3.6959555223 -2.5090884231  0.4002791742
F  -3.4748381235 -2.3166302473  1.7363099426
F  -3.3323427892 -3.7967380451  0.1350932157
F  -5.0518596281 -2.4509046832  0.2388555512
N  -3.5000000000  0.0000000000  0.0000000000
S  -3.2655267855  1.3046397321 -0.8658021032
O  -1.8797142080  1.6760436120 -1.1600466516
O  -4.2023530618  1.5001653258 -1.9762677903
C  -3.7999950145  2.4976778358  0.4071634612
F  -3.0412922153  2.4259860795  1.5416910926
F  -5.0887213974  2.2804713439  0.8107802295
F  -3.7446997239  3.7949461342 -0.0107008183
Li  0.0000000000  0.0000000000  0.0000000000
C   3.9850266860 -3.9529304559  1.0419139248
C   4.7317518578 -2.7504285966  1.6037646482
C   3.9824574535 -2.0329998776  2.6883805578
O   3.1745403113 -1.1159080344  1.9717377370
C   3.8120296242 -0.8764683636  0.7871730229
O   3.5000000000  0.0000000000  0.0000000000
O   4.8451316955 -1.7521721104  0.6008720543
H   3.8615577546 -4.7296099006  1.8026602206
H   4.5353813269 -4.3770588019  0.1952120033
H   2.9953778234 -3.6740610881  0.6637102272
H   5.7265030062 -3.0567375635  1.9429328746
H   4.6506227682 -1.4606341561  3.3413267576
H   3.3669096402 -2.6941000438  3.3051953405
