32
{"structure_id":"triad__Li__TFSI__DME__CSA"}
Li -3.5000000000  0.0000000000  0.0000000000
C   0.6644609604  1.1162883203 -0.5757772420
O   0.0000000000  0.0000000000  0.0000000000
C  -0.3297034307  0.1910673791  1.3763962811
C   0.8680343400 -0.0491909766  2.2986934818
O   0.5101020190  0.0185620350  3.6796252316
C   0.4059264617  1.3498433706  4.1653843837
H   1.6350802166  1.2824629470 -0.1012804628
H   0.0460663388  2.0154921442 -0.4962360682
H   0.8323213555  0.9044663850 -1.6353145762
H  -1.1161335743 -0.5300690277  1.6266462618
H  -0.7706008002  1.1826856531  1.5275276903
H   1.2589354409 -1.0559056724  2.1119917114
H   1.6934985873  0.6391500170  2.0857756092
H  -0.4035485961  1.8876490933  3.6650031273
H   0.1796706460  1.3065233547  5.2343088745
H   1.3522250552  1.8830791467  4.0331505087
O   5.5986303917 -1.4682219067 -0.2990876500
S   4.1819799449 -1.2835753851 -0.6277141931
O   3.8213932350 -1.6312669826 -2.0039692747
C   3.3040444777 -2.5090884231  0.4002791742
F   3.5251618765 -2.3166302473  1.7363099426
F   3.6676572108 -3.7967380451  0.1350932157
F   1.9481403719 -2.4509046832  0.2388555512
N   3.5000000000  0.0000000000  0.0000000000
S   3.7344732145  1.3046397321 -0.8658021032
O   5.1202857920  1.6760436120 -1.1600466516
O   2.7976469382  1.5001653258 -1.9762677903
C   3.2000049855  2.4976778358  0.4071634612
F   3.9587077847  2.4259860795  1.5416910926
F   1.9112786026  2.2804713439  0.8107802295
F   3.2553002761  3.7949461342 -0.0107008183
