27
{"structure_id":"triad__Li__TDI__PC__CAS"}
Li -3.5000000000  0.0000000000  0.0000000000
C  -0.6299299206 -2.5209936611  0.3259743982
N  -0.8306078551 -3.5112286160  0.9035987728
C  -0.3703273760 -1.2136555696 -0.4885592774
C  -0.4849844351 -1.1048280025 -1.8601954257
N  -0.1845535087  0.1751188521 -2.2070249857
C   0.1201938278  0.8605944884 -1.0600877182
N   0.0000000000  0.0000000000  0.0000000000
C   0.5072249648  2.3478773279 -0.9707147956
F   1.4935048493  2.5942310606 -0.0534191659
F   0.9745596040  2.8632559935 -2.1500072874
F  -0.5453047891  3.1456447781 -0.6101968735
C  -0.8924514561 -2.2717980208 -2.8152612944
N  -1.1985590606 -3.1619358175 -3.4996925676
C   3.9850266860 -3.9529304559  1.0419139248
C   4.7317518578 -2.7504285966  1.6037646482
C   3.9824574535 -2.0329998776  2.6883805578
O   3.1745403113 -1.1159080344  1.9717377370
C   3.8120296242 -0.8764683636  0.7871730229
O   3.5000000000  0.0000000000  0.0000000000
O   4.8451316955 -1.7521721104  0.6008720543
H   3.8615577546 -4.7296099006  1.8026602206
H   4.5353813269 -4.3770588019  0.1952120033
H   2.9953778234 -3.6740610881  0.6637102272
H   5.7265030062 -3.0567375635  1.9429328746
H   4.6506227682 -1.4606341561  3.3413267576
H   3.3669096402 -2.6941000438  3.3051953405
