32
{"structure_id":"triad__Li__TFSI__DME__ACS"}
O  -1.4013696083 -1.4682219067 -0.2990876500
S  -2.8180200551 -1.2835753851 -0.6277141931
O  -3.1786067650 -1.6312669826 -2.0039692747
C  -3.6959555223 -2.5090884231  0.4002791742
F  -3.4748381235 -2.3166302473  1.7363099426
F  -3.3323427892 -3.7967380451  0.1350932157
F  -5.0518596281 -2.4509046832  0.2388555512
N  -3.5000000000  0.0000000000  0.0000000000
S  -3.2655267855  1.3046397321 -0.8658021032
O  -1.8797142080  1.6760436120 -1.1600466516
O  -4.2023530618  1.5001653258 -1.9762677903
C  -3.7999950145  2.4976778358  0.4071634612
F  -3.0412922153  2.4259860795  1.5416910926
F  -5.0887213974  2.2804713439  0.8107802295
F  -3.7446997239  3.7949461342 -0.0107008183
Li  0.0000000000  0.0000000000  0.0000000000
C   4.1644609604  1.1162883203 -0.5757772420
O   3.5000000000  0.0000000000  0.0000000000
C   3.1702965693  0.1910673791  1.3763962811
C   4.3680343400 -0.0491909766  2.2986934818
O   4.0101020190  0.0185620350  3.6796252316
C   3.9059264617  1.3498433706  4.1653843837
H   5.1350802166  1.2824629470 -0.1012804628
H   3.5460663388  2.0154921442 -0.4962360682
H   4.3323213555  0.9044663850 -1.6353145762
H   2.3838664257 -0.5300690277  1.6266462618
H   2.7293991998  1.1826856531  1.5275276903
H   4.7589354409 -1.0559056724  2.1119917114
H   5.1934985873  0.6391500170  2.0857756092
H   3.0964514039  1.8876490933  3.6650031273
H   3.6796706460  1.3065233547  5.2343088745
H   4.8522250552  1.8830791467  4.0331505087
