12
{"structure_id":"triad__Li__BF4__ACN__CAS"}
Li -3.5000000000  0.0000000000  0.0000000000
B   0.0000000000  0.0000000000  0.0000000000
F   0.8082903769  0.8082903769  0.8082903769
F   0.8082903769 -0.8082903769 -0.8082903769
F  -0.8082903769  0.8082903769 -0.8082903769
F  -0.8082903769 -0.8082903769  0.8082903769
C   3.4889399369 -0.0038817988 -2.6221374865
C   3.4951061126 -0.0017178737 -1.1602361602
N   3.5000000000  0.0000000000  0.0000000000
H   2.8610988492 -0.8129608135 -3.0070139798
H   3.1002187186  0.9421099762 -3.0106197925
H   4.5005837877 -0.1425206612 -3.0149209280
