30
{"structure_id":"triad__Li__TDI__DME__CSA"}
Li -3.5000000000  0.0000000000  0.0000000000
C   0.6644609604  1.1162883203 -0.5757772420
O   0.0000000000  0.0000000000  0.0000000000
C  -0.3297034307  0.1910673791  1.3763962811
C   0.8680343400 -0.0491909766  2.2986934818
O   0.5101020190  0.0185620350  3.6796252316
C   0.4059264617  1.3498433706  4.1653843837
H   1.6350802166  1.2824629470 -0.1012804628
H   0.0460663388  2.0154921442 -0.4962360682
H   0.8323213555  0.9044663850 -1.6353145762
H  -1.1161335743 -0.5300690277  1.6266462618
H  -0.7706008002  1.1826856531  1.5275276903
H   1.2589354409 -1.0559056724  2.1119917114
H   1.6934985873  0.6391500170  2.0857756092
H  -0.4035485961  1.8876490933  3.6650031273
H   0.1796706460  1.3065233547  5.2343088745
H   1.3522250552  1.8830791467  4.0331505087
C   2.8700700794 -2.5209936611  0.3259743982
N   2.6693921449 -3.5112286160  0.9035987728
C   3.1296726240 -1.2136555696 -0.4885592774
C   3.0150155649 -1.1048280025 -1.8601954257
N   3.3154464913  0.1751188521 -2.2070249857
C   3.6201938278  0.8605944884 -1.0600877182
N   3.5000000000  0.0000000000  0.0000000000
C   4.0072249648  2.3478773279 -0.9707147956
F   4.9935048493  2.5942310606 -0.0534191659
F   4.4745596040  2.8632559935 -2.1500072874
F   2.9546952109  3.1456447781 -0.6101968735
C   2.6075485439 -2.2717980208 -2.8152612944
N   2.3014409394 -3.1619358175 -3.4996925676
