14
{"structure_id":"triad__Li__PF6__ACN__ACS"}
F  -2.1700000000  0.0000000000  0.0000000000
P  -3.7500000000  0.0000000000  0.0000000000
F  -5.3300000000  0.0000000000  0.0000000000
F  -3.7500000000  1.5800000000  0.0000000000
F  -3.7500000000 -1.5800000000  0.0000000000
F  -3.7500000000  0.0000000000  1.5800000000
F  -3.7500000000  0.0000000000 -1.5800000000
Li  0.0000000000  0.0000000000  0.0000000000
C   3.4889399369 -0.0038817988 -2.6221374865
C   3.4951061126 -0.0017178737 -1.1602361602
N   3.5000000000  0.0000000000  0.0000000000
H   2.8610988492 -0.8129608135 -3.0070139798
H   3.1002187186  0.9421099762 -3.0106197925
H   4.5005837877 -0.1425206612 -3.0149209280
