24
{"structure_id":"triad__Li__TDI__DMSO__CAS"}
Li -3.5000000000  0.0000000000  0.0000000000
C  -0.6299299206 -2.5209936611  0.3259743982
N  -0.8306078551 -3.5112286160  0.9035987728
C  -0.3703273760 -1.2136555696 -0.4885592774
C  -0.4849844351 -1.1048280025 -1.8601954257
N  -0.1845535087  0.1751188521 -2.2070249857
C   0.1201938278  0.8605944884 -1.0600877182
N   0.0000000000  0.0000000000  0.0000000000
C   0.5072249648  2.3478773279 -0.9707147956
F   1.4935048493  2.5942310606 -0.0534191659
F   0.9745596040  2.8632559935 -2.1500072874
F  -0.5453047891  3.1456447781 -0.6101968735
C  -0.8924514561 -2.2717980208 -2.8152612944
N  -1.1985590606 -3.1619358175 -3.4996925676
C   4.9160172179 -1.4171508102 -1.7724704590
S   4.8360578704  0.0237969304 -0.6815076943
C   4.7484330050  1.2510237841 -2.0078402528
O   3.5000000000  0.0000000000  0.0000000000
H   4.0355843924 -1.4451574284 -2.4188933517
H   4.9420542537 -2.3190889371 -1.1564462599
H   5.8242852368 -1.3664469289 -2.3774265975
H   3.8784660097  1.0563420520 -2.6395571944
H   5.6625364033  1.2087724244 -2.6045969452
H   4.6555362285  2.2427117559 -1.5588611249
