20
{"structure_id":"triad__Li__TDI__ACN__CSA"}
Li -3.5000000000  0.0000000000  0.0000000000
C  -0.0110600631 -0.0038817988 -2.6221374865
C  -0.0048938874 -0.0017178737 -1.1602361602
N   0.0000000000  0.0000000000  0.0000000000
H  -0.6389011508 -0.8129608135 -3.0070139798
H  -0.3997812814  0.9421099762 -3.0106197925
H   1.0005837877 -0.1425206612 -3.0149209280
C   2.8700700794 -2.5209936611  0.3259743982
N   2.6693921449 -3.5112286160  0.9035987728
C   3.1296726240 -1.2136555696 -0.4885592774
C   3.0150155649 -1.1048280025 -1.8601954257
N   3.3154464913  0.1751188521 -2.2070249857
C   3.6201938278  0.8605944884 -1.0600877182
N   3.5000000000  0.0000000000  0.0000000000
C   4.0072249648  2.3478773279 -0.9707147956
F   4.9935048493  2.5942310606 -0.0534191659
F   4.4745596040  2.8632559935 -2.1500072874
F   2.9546952109  3.1456447781 -0.6101968735
C   2.6075485439 -2.2717980208 -2.8152612944
N   2.3014409394 -3.1619358175 -3.4996925676
