19
{"structure_id":"triad__Li__BF4__PC__CSA"}
Li -3.5000000000  0.0000000000  0.0000000000
C   0.4850266860 -3.9529304559  1.0419139248
C   1.2317518578 -2.7504285966  1.6037646482
C   0.4824574535 -2.0329998776  2.6883805578
O  -0.3254596887 -1.1159080344  1.9717377370
C   0.3120296242 -0.8764683636  0.7871730229
O   0.0000000000  0.0000000000  0.0000000000
O   1.3451316955 -1.7521721104  0.6008720543
H   0.3615577546 -4.7296099006  1.8026602206
H   1.0353813269 -4.3770588019  0.1952120033
H  -0.5046221766 -3.6740610881  0.6637102272
H   2.2265030062 -3.0567375635  1.9429328746
H   1.1506227682 -1.4606341561  3.3413267576
H  -0.1330903598 -2.6941000438  3.3051953405
B   4.0000000000  0.0000000000  0.0000000000
F   4.8082903769  0.8082903769  0.8082903769
F   4.8082903769 -0.8082903769 -0.8082903769
F   3.1917096231  0.8082903769 -0.8082903769
F   3.1917096231 -0.8082903769  0.8082903769
