14
{"structure_id":"triad__Li__PF6__ACN__CAS"}
Li -3.7500000000  0.0000000000  0.0000000000
F   1.5800000000  0.0000000000  0.0000000000
P   0.0000000000  0.0000000000  0.0000000000
F  -1.5800000000  0.0000000000  0.0000000000
F   0.0000000000  1.5800000000  0.0000000000
F   0.0000000000 -1.5800000000  0.0000000000
F   0.0000000000  0.0000000000  1.5800000000
F   0.0000000000  0.0000000000 -1.5800000000
C   3.7389399369 -0.0038817988 -2.6221374865
C   3.7451061126 -0.0017178737 -1.1602361602
N   3.7500000000  0.0000000000  0.0000000000
H   3.1110988492 -0.8129608135 -3.0070139798
H   3.3502187186  0.9421099762 -3.0106197925
H   4.7505837877 -0.1425206612 -3.0149209280
