22
{"structure_id":"triad__Li__BF4__DME__CAS"}
Li -3.5000000000  0.0000000000  0.0000000000
B   0.0000000000  0.0000000000  0.0000000000
F   0.8082903769  0.8082903769  0.8082903769
F   0.8082903769 -0.8082903769 -0.8082903769
F  -0.8082903769  0.8082903769 -0.8082903769
F  -0.8082903769 -0.8082903769  0.8082903769
C   4.1644609604  1.1162883203 -0.5757772420
O   3.5000000000  0.0000000000  0.0000000000
C   3.1702965693  0.1910673791  1.3763962811
C   4.3680343400 -0.0491909766  2.2986934818
O   4.0101020190  0.0185620350  3.6796252316
C   3.9059264617  1.3498433706  4.1653843837
H   5.1350802166  1.2824629470 -0.1012804628
H   3.5460663388  2.0154921442 -0.4962360682
H   4.3323213555  0.9044663850 -1.6353145762
H   2.3838664257 -0.5300690277  1.6266462618
H   2.7293991998  1.1826856531  1.5275276903
H   4.7589354409 -1.0559056724  2.1119917114
H   5.1934985873  0.6391500170  2.0857756092
H   3.0964514039  1.8876490933  3.6650031273
H   3.6796706460  1.3065233547  5.2343088745
H   4.8522250552  1.8830791467  4.0331505087
