27
{"structure_id":"triad__Li__TDI__PC__CSA"}
Li -3.5000000000  0.0000000000  0.0000000000
C   0.4850266860 -3.9529304559  1.0419139248
C   1.2317518578 -2.7504285966  1.6037646482
C   0.4824574535 -2.0329998776  2.6883805578
O  -0.3254596887 -1.1159080344  1.9717377370
C   0.3120296242 -0.8764683636  0.7871730229
O   0.0000000000  0.0000000000  0.0000000000
O   1.3451316955 -1.7521721104  0.6008720543
H   0.3615577546 -4.7296099006  1.8026602206
H   1.0353813269 -4.3770588019  0.1952120033
H  -0.5046221766 -3.6740610881  0.6637102272
H   2.2265030062 -3.0567375635  1.9429328746
H   1.1506227682 -1.4606341561  3.3413267576
H  -0.1330903598 -2.6941000438  3.3051953405
C   3.3700700794 -2.5209936611  0.3259743982
N   3.1693921449 -3.5112286160  0.9035987728
C   3.6296726240 -1.2136555696 -0.4885592774
C   3.5150155649 -1.1048280025 -1.8601954257
N   3.8154464913  0.1751188521 -2.2070249857
C   4.1201938278  0.8605944884 -1.0600877182
N   4.0000000000  0.0000000000  0.0000000000
C   4.5072249648  2.3478773279 -0.9707147956
F   5.4935048493  2.5942310606 -0.0534191659
F   4.9745596040  2.8632559935 -2.1500072874
F   3.4546952109  3.1456447781 -0.6101968735
C   3.1075485439 -2.2717980208 -2.8152612944
N   2.8014409394 -3.1619358175 -3.4996925676
