20
{"structure_id":"triad__Li__TDI__ACN__ACS"}
C  -4.1299299206 -2.5209936611  0.3259743982
N  -4.3306078551 -3.5112286160  0.9035987728
C  -3.8703273760 -1.2136555696 -0.4885592774
C  -3.9849844351 -1.1048280025 -1.8601954257
N  -3.6845535087  0.1751188521 -2.2070249857
C  -3.3798061722  0.8605944884 -1.0600877182
N  -3.5000000000  0.0000000000  0.0000000000
C  -2.9927750352  2.3478773279 -0.9707147956
F  -2.0064951507  2.5942310606 -0.0534191659
F  -2.5254403960  2.8632559935 -2.1500072874
F  -4.0453047891  3.1456447781 -0.6101968735
C  -4.3924514561 -2.2717980208 -2.8152612944
N  -4.6985590606 -3.1619358175 -3.4996925676
Li  0.0000000000  0.0000000000  0.0000000000
C   3.4889399369 -0.0038817988 -2.6221374865
C   3.4951061126 -0.0017178737 -1.1602361602
N   3.5000000000  0.0000000000  0.0000000000
H   2.8610988492 -0.8129608135 -3.0070139798
H   3.1002187186  0.9421099762 -3.0106197925
H   4.5005837877 -0.1425206612 -3.0149209280
