24
{"structure_id":"triad__Li__TDI__DMSO__CSA"}
Li -3.5000000000  0.0000000000  0.0000000000
C   1.4160172179 -1.4171508102 -1.7724704590
S   1.3360578704  0.0237969304 -0.6815076943
C   1.2484330050  1.2510237841 -2.0078402528
O   0.0000000000  0.0000000000  0.0000000000
H   0.5355843924 -1.4451574284 -2.4188933517
H   1.4420542537 -2.3190889371 -1.1564462599
H   2.3242852368 -1.3664469289 -2.3774265975
H   0.3784660097  1.0563420520 -2.6395571944
H   2.1625364033  1.2087724244 -2.6045969452
H   1.1555362285  2.2427117559 -1.5588611249
C   3.3700700794 -2.5209936611  0.3259743982
N   3.1693921449 -3.5112286160  0.9035987728
C   3.6296726240 -1.2136555696 -0.4885592774
C   3.5150155649 -1.1048280025 -1.8601954257
N   3.8154464913  0.1751188521 -2.2070249857
C   4.1201938278  0.8605944884 -1.0600877182
N   4.0000000000  0.0000000000  0.0000000000
C   4.5072249648  2.3478773279 -0.9707147956
F   5.4935048493  2.5942310606 -0.0534191659
F   4.9745596040  2.8632559935 -2.1500072874
F   3.4546952109  3.1456447781 -0.6101968735
C   3.1075485439 -2.2717980208 -2.8152612944
N   2.8014409394 -3.1619358175 -3.4996925676
