18
{"structure_id":"triad__Li__PF6__DMSO__ACS"}
F  -2.1700000000  0.0000000000  0.0000000000
P  -3.7500000000  0.0000000000  0.0000000000
F  -5.3300000000  0.0000000000  0.0000000000
F  -3.7500000000  1.5800000000  0.0000000000
F  -3.7500000000 -1.5800000000  0.0000000000
F  -3.7500000000  0.0000000000  1.5800000000
F  -3.7500000000  0.0000000000 -1.5800000000
Li  0.0000000000  0.0000000000  0.0000000000
C   4.9160172179 -1.4171508102 -1.7724704590
S   4.8360578704  0.0237969304 -0.6815076943
C   4.7484330050  1.2510237841 -2.0078402528
O   3.5000000000  0.0000000000  0.0000000000
H   4.0355843924 -1.4451574284 -2.4188933517
H   4.9420542537 -2.3190889371 -1.1564462599
H   5.8242852368 -1.3664469289 -2.3774265975
H   3.8784660097  1.0563420520 -2.6395571944
H   5.6625364033  1.2087724244 -2.6045969452
H   4.6555362285  2.2427117559 -1.5588611249
