22
{"structure_id":"triad__Li__TFSI__ACN__CSA"}
Li -3.5000000000  0.0000000000  0.0000000000
C  -0.0110600631 -0.0038817988 -2.6221374865
C  -0.0048938874 -0.0017178737 -1.1602361602
N   0.0000000000  0.0000000000  0.0000000000
H  -0.6389011508 -0.8129608135 -3.0070139798
H  -0.3997812814  0.9421099762 -3.0106197925
H   1.0005837877 -0.1425206612 -3.0149209280
O   5.5986303917 -1.4682219067 -0.2990876500
S   4.1819799449 -1.2835753851 -0.6277141931
O   3.8213932350 -1.6312669826 -2.0039692747
C   3.3040444777 -2.5090884231  0.4002791742
F   3.5251618765 -2.3166302473  1.7363099426
F   3.6676572108 -3.7967380451  0.1350932157
F   1.9481403719 -2.4509046832  0.2388555512
N   3.5000000000  0.0000000000  0.0000000000
S   3.7344732145  1.3046397321 -0.8658021032
O   5.1202857920  1.6760436120 -1.1600466516
O   2.7976469382  1.5001653258 -1.9762677903
C   3.2000049855  2.4976778358  0.4071634612
F   3.9587077847  2.4259860795  1.5416910926
F   1.9112786026  2.2804713439  0.8107802295
F   3.2553002761  3.7949461342 -0.0107008183
