18
{"structure_id":"triad__Li__PF6__DMSO__CAS"}
Li -3.7500000000  0.0000000000  0.0000000000
F   1.5800000000  0.0000000000  0.0000000000
P   0.0000000000  0.0000000000  0.0000000000
F  -1.5800000000  0.0000000000  0.0000000000
F   0.0000000000  1.5800000000  0.0000000000
F   0.0000000000 -1.5800000000  0.0000000000
F   0.0000000000  0.0000000000  1.5800000000
F   0.0000000000  0.0000000000 -1.5800000000
C   5.1660172179 -1.4171508102 -1.7724704590
S   5.0860578704  0.0237969304 -0.6815076943
C   4.9984330050  1.2510237841 -2.0078402528
O   3.7500000000  0.0000000000  0.0000000000
H   4.2855843924 -1.4451574284 -2.4188933517
H   5.1920542537 -2.3190889371 -1.1564462599
H   6.0742852368 -1.3664469289 -2.3774265975
H   4.1284660097  1.0563420520 -2.6395571944
H   5.9125364033  1.2087724244 -2.6045969452
H   4.9055362285  2.2427117559 -1.5588611249
