18
{"structure_id":"triad__Li__PF6__DMSO__CSA"}
Li -3.5000000000  0.0000000000  0.0000000000
C   1.4160172179 -1.4171508102 -1.7724704590
S   1.3360578704  0.0237969304 -0.6815076943
C   1.2484330050  1.2510237841 -2.0078402528
O   0.0000000000  0.0000000000  0.0000000000
H   0.5355843924 -1.4451574284 -2.4188933517
H   1.4420542537 -2.3190889371 -1.1564462599
H   2.3242852368 -1.3664469289 -2.3774265975
H   0.3784660097  1.0563420520 -2.6395571944
H   2.1625364033  1.2087724244 -2.6045969452
H   1.1555362285  2.2427117559 -1.5588611249
F   6.5800000000  0.0000000000  0.0000000000
P   5.0000000000  0.0000000000  0.0000000000
F   3.4200000000  0.0000000000  0.0000000000
F   5.0000000000  1.5800000000  0.0000000000
F   5.0000000000 -1.5800000000  0.0000000000
F   5.0000000000  0.0000000000  1.5800000000
F   5.0000000000  0.0000000000 -1.5800000000
