12
{"structure_id":"triad__Li__BF4__ACN__CSA"}
Li -3.5000000000  0.0000000000  0.0000000000
C  -0.0110600631 -0.0038817988 -2.6221374865
C  -0.0048938874 -0.0017178737 -1.1602361602
N   0.0000000000  0.0000000000  0.0000000000
H  -0.6389011508 -0.8129608135 -3.0070139798
H  -0.3997812814  0.9421099762 -3.0106197925
H   1.0005837877 -0.1425206612 -3.0149209280
B   3.5000000000  0.0000000000  0.0000000000
F   4.3082903769  0.8082903769  0.8082903769
F   4.3082903769 -0.8082903769 -0.8082903769
F   2.6917096231  0.8082903769 -0.8082903769
F   2.6917096231 -0.8082903769  0.8082903769
