26
{"structure_id":"triad__Li__TFSI__DMSO__CSA"}
Li -3.5000000000  0.0000000000  0.0000000000
C   1.4160172179 -1.4171508102 -1.7724704590
S   1.3360578704  0.0237969304 -0.6815076943
C   1.2484330050  1.2510237841 -2.0078402528
O   0.0000000000  0.0000000000  0.0000000000
H   0.5355843924 -1.4451574284 -2.4188933517
H   1.4420542537 -2.3190889371 -1.1564462599
H   2.3242852368 -1.3664469289 -2.3774265975
H   0.3784660097  1.0563420520 -2.6395571944
H   2.1625364033  1.2087724244 -2.6045969452
H   1.1555362285  2.2427117559 -1.5588611249
O   6.0986303917 -1.4682219067 -0.2990876500
S   4.6819799449 -1.2835753851 -0.6277141931
O   4.3213932350 -1.6312669826 -2.0039692747
C   3.8040444777 -2.5090884231  0.4002791742
F   4.0251618765 -2.3166302473  1.7363099426
F   4.1676572108 -3.7967380451  0.1350932157
F   2.4481403719 -2.4509046832  0.2388555512
N   4.0000000000  0.0000000000  0.0000000000
S   4.2344732145  1.3046397321 -0.8658021032
O   5.6202857920  1.6760436120 -1.1600466516
O   3.2976469382  1.5001653258 -1.9762677903
C   3.7000049855  2.4976778358  0.4071634612
F   4.4587077847  2.4259860795  1.5416910926
F   2.4112786026  2.2804713439  0.8107802295
F   3.7553002761  3.7949461342 -0.0107008183
