21
{"structure_id":"triad__Li__PF6__PC__CAS"}
Li -3.7500000000  0.0000000000  0.0000000000
F   1.5800000000  0.0000000000  0.0000000000
P   0.0000000000  0.0000000000  0.0000000000
F  -1.5800000000  0.0000000000  0.0000000000
F   0.0000000000  1.5800000000  0.0000000000
F   0.0000000000 -1.5800000000  0.0000000000
F   0.0000000000  0.0000000000  1.5800000000
F   0.0000000000  0.0000000000 -1.5800000000
C   4.2350266860 -3.9529304559  1.0419139248
C   4.9817518578 -2.7504285966  1.6037646482
C   4.2324574535 -2.0329998776  2.6883805578
O   3.4245403113 -1.1159080344  1.9717377370
C   4.0620296242 -0.8764683636  0.7871730229
O   3.7500000000  0.0000000000  0.0000000000
O   5.0951316955 -1.7521721104  0.6008720543
H   4.1115577546 -4.7296099006  1.8026602206
H   4.7853813269 -4.3770588019  0.1952120033
H   3.2453778234 -3.6740610881  0.6637102272
H   5.9765030062 -3.0567375635  1.9429328746
H   4.9006227682 -1.4606341561  3.3413267576
H   3.6169096402 -2.6941000438  3.3051953405
