29
{"structure_id":"triad__Li__TFSI__PC__CSA"}
Li -3.5000000000  0.0000000000  0.0000000000
C   0.4850266860 -3.9529304559  1.0419139248
C   1.2317518578 -2.7504285966  1.6037646482
C   0.4824574535 -2.0329998776  2.6883805578
O  -0.3254596887 -1.1159080344  1.9717377370
C   0.3120296242 -0.8764683636  0.7871730229
O   0.0000000000  0.0000000000  0.0000000000
O   1.3451316955 -1.7521721104  0.6008720543
H   0.3615577546 -4.7296099006  1.8026602206
H   1.0353813269 -4.3770588019  0.1952120033
H  -0.5046221766 -3.6740610881  0.6637102272
H   2.2265030062 -3.0567375635  1.9429328746
H   1.1506227682 -1.4606341561  3.3413267576
H  -0.1330903598 -2.6941000438  3.3051953405
O   6.8486303917 -1.4682219067 -0.2990876500
S   5.4319799449 -1.2835753851 -0.6277141931
O   5.0713932350 -1.6312669826 -2.0039692747
C   4.5540444777 -2.5090884231  0.4002791742
F   4.7751618765 -2.3166302473  1.7363099426
F   4.9176572108 -3.7967380451  0.1350932157
F   3.1981403719 -2.4509046832  0.2388555512
N   4.7500000000  0.0000000000  0.0000000000
S   4.9844732145  1.3046397321 -0.8658021032
O   6.3702857920  1.6760436120 -1.1600466516
O   4.0476469382  1.5001653258 -1.9762677903
C   4.4500049855  2.4976778358  0.4071634612
F   5.2087077847  2.4259860795  1.5416910926
F   3.1612786026  2.2804713439  0.8107802295
F   4.5053002761  3.7949461342 -0.0107008183
