22
{"structure_id":"triad__Li__TFSI__ACN__CAS"}
Li -3.5000000000  0.0000000000  0.0000000000
O   2.0986303917 -1.4682219067 -0.2990876500
S   0.6819799449 -1.2835753851 -0.6277141931
O   0.3213932350 -1.6312669826 -2.0039692747
C  -0.1959555223 -2.5090884231  0.4002791742
F   0.0251618765 -2.3166302473  1.7363099426
F   0.1676572108 -3.7967380451  0.1350932157
F  -1.5518596281 -2.4509046832  0.2388555512
N   0.0000000000  0.0000000000  0.0000000000
S   0.2344732145  1.3046397321 -0.8658021032
O   1.6202857920  1.6760436120 -1.1600466516
O  -0.7023530618  1.5001653258 -1.9762677903
C  -0.2999950145  2.4976778358  0.4071634612
F   0.4587077847  2.4259860795  1.5416910926
F  -1.5887213974  2.2804713439  0.8107802295
F  -0.2446997239  3.7949461342 -0.0107008183
C   3.4889399369 -0.0038817988 -2.6221374865
C   3.4951061126 -0.0017178737 -1.1602361602
N   3.5000000000  0.0000000000  0.0000000000
H   2.8610988492 -0.8129608135 -3.0070139798
H   3.1002187186  0.9421099762 -3.0106197925
H   4.5005837877 -0.1425206612 -3.0149209280
