21
{"structure_id":"triad__Li__PF6__PC__ACS"}
F  -2.1700000000  0.0000000000  0.0000000000
P  -3.7500000000  0.0000000000  0.0000000000
F  -5.3300000000  0.0000000000  0.0000000000
F  -3.7500000000  1.5800000000  0.0000000000
F  -3.7500000000 -1.5800000000  0.0000000000
F  -3.7500000000  0.0000000000  1.5800000000
F  -3.7500000000  0.0000000000 -1.5800000000
Li  0.0000000000  0.0000000000  0.0000000000
C   3.9850266860 -3.9529304559  1.0419139248
C   4.7317518578 -2.7504285966  1.6037646482
C   3.9824574535 -2.0329998776  2.6883805578
O   3.1745403113 -1.1159080344  1.9717377370
C   3.8120296242 -0.8764683636  0.7871730229
O   3.5000000000  0.0000000000  0.0000000000
O   4.8451316955 -1.7521721104  0.6008720543
H   3.8615577546 -4.7296099006  1.8026602206
H   4.5353813269 -4.3770588019  0.1952120033
H   2.9953778234 -3.6740610881  0.6637102272
H   5.7265030062 -3.0567375635  1.9429328746
H   4.6506227682 -1.4606341561  3.3413267576
H   3.3669096402 -2.6941000438  3.3051953405
